output file Z88O3.TXT : stresses, computed by Z88D V13.0
                        ********

isoparametric elements: computing stresses in Gauss points 4 points per axis/element
computing von Mises' stresses for elements 3 + 6 and for Gauss points of
 elements 1,7,8,10,11,12,14 to 20

element # = 1     type =16-n plate
 XX         YY         MXX         MYY         MXY         QYZ         QZX         SIGXX       SIGYY       TAUXY       TAUXZ(Z=0)  TAUYZ(Z=0)   SIGV
 +6.94E-02  +6.94E-02  -2.946E+02  -2.944E+02  -2.250E+02  -1.223E+03  -1.223E+03  -1.105E+04  -1.104E+04  -8.437E+03  -4.586E+03  -4.586E+03  +1.832E+04
 +6.94E-02  +3.30E-01  -1.606E+03  -5.131E+02  -7.186E+02  -1.784E+03  -3.064E+03  -6.023E+04  -1.924E+04  -2.695E+04  -6.691E+03  -1.149E+04  +7.083E+04
 +6.94E-02  +6.70E-01  -4.347E+03  -9.305E+02  -1.336E+03  -2.762E+03  -6.934E+02  -1.630E+05  -3.489E+04  -5.010E+04  -1.036E+04  -2.600E+03  +1.722E+05
 +6.94E-02  +9.31E-01  -7.408E+03  -1.380E+03  -1.739E+03  -3.465E+03  +3.053E+03  -2.778E+05  -5.175E+04  -6.521E+04  -1.300E+04  +1.145E+04  +2.797E+05
 +3.30E-01  +6.94E-02  -5.139E+02  -1.606E+03  -7.196E+02  -3.060E+03  -1.785E+03  -1.927E+04  -6.023E+04  -2.699E+04  -1.147E+04  -6.693E+03  +7.087E+04
 +3.30E-01  +3.30E-01  -1.694E+03  -1.691E+03  -1.638E+03  -4.284E+03  -4.285E+03  -6.351E+04  -6.341E+04  -6.141E+04  -1.607E+04  -1.607E+04  +1.239E+05
 +3.30E-01  +6.70E-01  -3.926E+03  -1.778E+03  -2.782E+03  -6.736E+03  -1.292E+03  -1.472E+05  -6.669E+04  -1.043E+05  -2.526E+04  -4.844E+03  +2.213E+05
 +3.30E-01  +9.31E-01  -6.294E+03  -1.848E+03  -3.598E+03  -8.453E+03  +2.137E+03  -2.360E+05  -6.932E+04  -1.349E+05  -3.170E+04  +8.015E+03  +3.143E+05
 +6.70E-01  +6.94E-02  -9.322E+02  -4.351E+03  -1.339E+03  -6.607E+02  -2.762E+03  -3.496E+04  -1.632E+05  -5.023E+04  -2.478E+03  -1.036E+04  +1.724E+05
 +6.70E-01  +3.30E-01  -1.781E+03  -3.922E+03  -2.784E+03  -1.284E+03  -6.729E+03  -6.679E+04  -1.471E+05  -1.044E+05  -4.814E+03  -2.523E+04  +2.213E+05
 +6.70E-01  +6.70E-01  -3.306E+03  -3.301E+03  -4.527E+03  -2.924E+03  -2.909E+03  -1.240E+05  -1.238E+05  -1.697E+05  -1.097E+04  -1.091E+04  +3.190E+05
 +6.70E-01  +9.31E-01  -4.882E+03  -2.795E+03  -5.780E+03  -4.052E+03  +8.111E+02  -1.831E+05  -1.048E+05  -2.167E+05  -1.520E+04  +3.041E+03  +4.077E+05
 +9.31E-01  +6.94E-02  -1.382E+03  -7.417E+03  -1.744E+03  +3.140E+03  -3.461E+03  -5.184E+04  -2.781E+05  -6.540E+04  +1.178E+04  -1.298E+04  +2.801E+05
 +9.31E-01  +3.30E-01  -1.849E+03  -6.287E+03  -3.601E+03  +2.169E+03  -8.416E+03  -6.933E+04  -2.358E+05  -1.350E+05  +8.135E+03  -3.156E+04  +3.143E+05
 +9.31E-01  +6.70E-01  -2.791E+03  -4.874E+03  -5.779E+03  +8.129E+02  -3.963E+03  -1.047E+05  -1.828E+05  -2.167E+05  +3.048E+03  -1.486E+04  +4.076E+05
 +9.31E-01  +9.31E-01  -3.842E+03  -3.850E+03  -7.331E+03  -3.245E+02  -2.122E+02  -1.441E+05  -1.444E+05  -2.749E+05  -1.217E+03  -7.956E+02  +4.975E+05

element # = 2     type =16-n plate
 XX         YY         MXX         MYY         MXY         QYZ         QZX         SIGXX       SIGYY       TAUXY       TAUXZ(Z=0)  TAUYZ(Z=0)   SIGV
 +1.07E+00  +6.94E-02  -1.667E+03  -9.361E+03  -1.873E+03  +5.445E+03  -3.807E+03  -6.251E+04  -3.510E+05  -7.025E+04  +2.042E+04  -1.428E+04  +3.464E+05
 +1.07E+00  +3.30E-01  -1.910E+03  -7.767E+03  -3.831E+03  +3.889E+03  -9.365E+03  -7.162E+04  -2.913E+05  -1.437E+05  +1.458E+04  -3.512E+04  +3.620E+05
 +1.07E+00  +6.70E-01  -2.551E+03  -5.853E+03  -6.132E+03  +2.311E+03  -4.735E+03  -9.564E+04  -2.195E+05  -2.300E+05  +8.667E+03  -1.775E+04  +4.416E+05
 +1.07E+00  +9.31E-01  -3.330E+03  -4.519E+03  -7.770E+03  +7.945E+02  -7.926E+02  -1.249E+05  -1.695E+05  -2.914E+05  +2.979E+03  -2.972E+03  +5.271E+05
 +1.33E+00  +6.94E-02  -2.272E+03  -1.326E+04  -2.059E+03  +1.005E+04  -4.258E+03  -8.519E+04  -4.973E+05  -7.720E+04  +3.770E+04  -1.597E+04  +4.796E+05
 +1.33E+00  +3.30E-01  -2.158E+03  -1.076E+04  -4.220E+03  +7.837E+03  -1.068E+04  -8.092E+04  -4.035E+05  -1.582E+05  +2.939E+04  -4.004E+04  +4.602E+05
 +1.33E+00  +6.70E-01  -2.268E+03  -7.848E+03  -6.759E+03  +6.280E+03  -6.073E+03  -8.505E+04  -2.943E+05  -2.534E+05  +2.355E+04  -2.277E+04  +5.114E+05
 +1.33E+00  +9.31E-01  -2.583E+03  -5.891E+03  -8.563E+03  +4.298E+03  -2.175E+03  -9.687E+04  -2.209E+05  -3.211E+05  +1.612E+04  -8.158E+03  +5.883E+05
 +1.67E+00  +6.94E-02  -3.140E+03  -1.876E+04  -2.167E+03  +1.609E+04  -4.562E+03  -1.177E+05  -7.036E+05  -8.125E+04  +6.035E+04  -1.711E+04  +6.677E+05
 +1.67E+00  +3.30E-01  -2.591E+03  -1.501E+04  -4.467E+03  +1.294E+04  -1.156E+04  -9.717E+04  -5.629E+05  -1.675E+05  +4.853E+04  -4.335E+04  +5.965E+05
 +1.67E+00  +6.70E-01  -2.064E+03  -1.072E+04  -7.185E+03  +1.129E+04  -6.953E+03  -7.739E+04  -4.021E+05  -2.695E+05  +4.232E+04  -2.607E+04  +5.953E+05
 +1.67E+00  +9.31E-01  -1.822E+03  -7.899E+03  -9.122E+03  +8.532E+03  -3.027E+03  -6.831E+04  -2.962E+05  -3.421E+05  +3.200E+04  -1.135E+04  +6.506E+05
 +1.93E+00  +6.94E-02  -3.829E+03  -2.308E+04  -2.161E+03  +2.051E+04  -4.632E+03  -1.436E+05  -8.656E+05  -8.102E+04  +7.690E+04  -1.737E+04  +8.156E+05
 +1.93E+00  +3.30E-01  -2.982E+03  -1.839E+04  -4.475E+03  +1.672E+04  -1.191E+04  -1.118E+05  -6.895E+05  -1.678E+05  +6.271E+04  -4.466E+04  +7.038E+05
 +1.93E+00  +6.70E-01  -2.018E+03  -1.304E+04  -7.233E+03  +1.498E+04  -7.666E+03  -7.567E+04  -4.890E+05  -2.712E+05  +5.619E+04  -2.875E+04  +6.546E+05
 +1.93E+00  +9.31E-01  -1.391E+03  -9.540E+03  -9.208E+03  +1.165E+04  -3.994E+03  -5.215E+04  -3.577E+05  -3.453E+05  +4.368E+04  -1.498E+04  +6.854E+05

element # = 3     type =16-n plate
 XX         YY         MXX         MYY         MXY         QYZ         QZX         SIGXX       SIGYY       TAUXY       TAUXZ(Z=0)  TAUYZ(Z=0)   SIGV
 +2.07E+00  +6.94E-02  -4.198E+03  -2.537E+04  -2.136E+03  +2.272E+04  -4.604E+03  -1.574E+05  -9.512E+05  -8.009E+04  +8.520E+04  -1.727E+04  +8.939E+05
 +2.07E+00  +3.30E-01  -3.213E+03  -2.019E+04  -4.439E+03  +1.865E+04  -1.186E+04  -1.205E+05  -7.570E+05  -1.665E+05  +6.992E+04  -4.448E+04  +7.612E+05
 +2.07E+00  +6.70E-01  -2.042E+03  -1.429E+04  -7.193E+03  +1.687E+04  -7.698E+03  -7.659E+04  -5.360E+05  -2.697E+05  +6.328E+04  -2.887E+04  +6.858E+05
 +2.07E+00  +9.31E-01  -1.233E+03  -1.044E+04  -9.169E+03  +1.326E+04  -4.069E+03  -4.624E+04  -3.914E+05  -3.438E+05  +4.971E+04  -1.526E+04  +7.014E+05
 +2.33E+00  +6.94E-02  -4.879E+03  -2.956E+04  -2.053E+03  +2.661E+04  -4.477E+03  -1.830E+05  -1.108E+06  -7.697E+04  +9.978E+04  -1.679E+04  +1.038E+06
 +2.33E+00  +3.30E-01  -3.659E+03  -2.351E+04  -4.285E+03  +2.204E+04  -1.164E+04  -1.372E+05  -8.817E+05  -1.607E+05  +8.264E+04  -4.366E+04  +8.676E+05
 +2.33E+00  +6.70E-01  -2.143E+03  -1.663E+04  -6.975E+03  +2.020E+04  -7.879E+03  -8.037E+04  -6.238E+05  -2.616E+05  +7.574E+04  -2.954E+04  +7.421E+05
 +2.33E+00  +9.31E-01  -1.029E+03  -1.213E+04  -8.918E+03  +1.608E+04  -4.559E+03  -3.859E+04  -4.550E+05  -3.344E+05  +6.030E+04  -1.710E+04  +7.256E+05
 +2.67E+00  +6.94E-02  -5.720E+03  -3.472E+04  -1.890E+03  +3.114E+04  -4.168E+03  -2.145E+05  -1.302E+06  -7.089E+04  +1.168E+05  -1.563E+04  +1.215E+06
 +2.67E+00  +3.30E-01  -4.233E+03  -2.765E+04  -3.969E+03  +2.605E+04  -1.090E+04  -1.587E+05  -1.037E+06  -1.488E+05  +9.768E+04  -4.088E+04  +1.001E+06
 +2.67E+00  +6.70E-01  -2.323E+03  -1.959E+04  -6.497E+03  +2.414E+04  -7.537E+03  -8.711E+04  -7.346E+05  -2.436E+05  +9.051E+04  -2.827E+04  +8.132E+05
 +2.67E+00  +9.31E-01  -8.586E+02  -1.430E+04  -8.335E+03  +1.947E+04  -4.516E+03  -3.220E+04  -5.362E+05  -3.126E+05  +7.300E+04  -1.693E+04  +7.512E+05
 +2.93E+00  +6.94E-02  -6.316E+03  -3.836E+04  -1.732E+03  +3.418E+04  -3.848E+03  -2.369E+05  -1.439E+06  -6.494E+04  +1.282E+05  -1.443E+04  +1.341E+06
 +2.93E+00  +3.30E-01  -4.654E+03  -3.059E+04  -3.648E+03  +2.877E+04  -1.014E+04  -1.745E+05  -1.147E+06  -1.368E+05  +1.079E+05  -3.801E+04  +1.097E+06
 +2.93E+00  +6.70E-01  -2.488E+03  -2.172E+04  -5.994E+03  +2.682E+04  -7.216E+03  -9.329E+04  -8.144E+05  -2.248E+05  +1.006E+05  -2.706E+04  +8.646E+05
 +2.93E+00  +9.31E-01  -7.937E+02  -1.588E+04  -7.709E+03  +2.180E+04  -4.569E+03  -2.976E+04  -5.954E+05  -2.891E+05  +8.174E+04  -1.713E+04  +7.670E+05

element # = 4     type =16-n plate
 XX         YY         MXX         MYY         MXY         QYZ         QZX         SIGXX       SIGYY       TAUXY       TAUXZ(Z=0)  TAUYZ(Z=0)   SIGV
 +3.07E+00  +6.94E-02  -6.612E+03  -4.017E+04  -1.639E+03  +3.564E+04  -3.653E+03  -2.480E+05  -1.506E+06  -6.145E+04  +1.337E+05  -1.370E+04  +1.403E+06
 +3.07E+00  +3.30E-01  -4.869E+03  -3.206E+04  -3.458E+03  +3.008E+04  -9.630E+03  -1.826E+05  -1.202E+06  -1.297E+05  +1.128E+05  -3.611E+04  +1.144E+06
 +3.07E+00  +6.70E-01  -2.584E+03  -2.279E+04  -5.693E+03  +2.811E+04  -6.872E+03  -9.689E+04  -8.545E+05  -2.135E+05  +1.054E+05  -2.577E+04  +8.907E+05
 +3.07E+00  +9.31E-01  -7.840E+02  -1.668E+04  -7.330E+03  +2.293E+04  -4.352E+03  -2.940E+04  -6.253E+05  -2.749E+05  +8.597E+04  -1.632E+04  +7.747E+05
 +3.33E+00  +6.94E-02  -7.123E+03  -4.328E+04  -1.449E+03  +3.809E+04  -3.248E+03  -2.671E+05  -1.623E+06  -5.434E+04  +1.428E+05  -1.218E+04  +1.510E+06
 +3.33E+00  +3.30E-01  -5.247E+03  -3.459E+04  -3.066E+03  +3.229E+04  -8.602E+03  -1.968E+05  -1.297E+06  -1.150E+05  +1.211E+05  -3.226E+04  +1.227E+06
 +3.33E+00  +6.70E-01  -2.768E+03  -2.465E+04  -5.062E+03  +3.029E+04  -6.257E+03  -1.038E+05  -9.243E+05  -1.898E+05  +1.136E+05  -2.346E+04  +9.366E+05
 +3.33E+00  +9.31E-01  -7.967E+02  -1.808E+04  -6.530E+03  +2.484E+04  -4.102E+03  -2.988E+04  -6.778E+05  -2.449E+05  +9.314E+04  -1.538E+04  +7.874E+05
 +3.67E+00  +6.94E-02  -7.692E+03  -4.674E+04  -1.180E+03  +4.074E+04  -2.659E+03  -2.885E+05  -1.753E+06  -4.426E+04  +1.528E+05  -9.970E+03  +1.630E+06
 +3.67E+00  +3.30E-01  -5.673E+03  -3.743E+04  -2.505E+03  +3.470E+04  -7.058E+03  -2.128E+05  -1.404E+06  -9.395E+04  +1.301E+05  -2.647E+04  +1.320E+06
 +3.67E+00  +6.70E-01  -2.985E+03  -2.675E+04  -4.150E+03  +3.267E+04  -5.170E+03  -1.119E+05  -1.003E+06  -1.556E+05  +1.225E+05  -1.939E+04  +9.894E+05
 +3.67E+00  +9.31E-01  -8.275E+02  -1.967E+04  -5.365E+03  +2.694E+04  -3.411E+03  -3.103E+04  -7.375E+05  -2.012E+05  +1.010E+05  -1.279E+04  +8.021E+05
 +3.93E+00  +6.94E-02  -8.048E+03  -4.890E+04  -9.609E+02  +4.235E+04  -2.172E+03  -3.018E+05  -1.834E+06  -3.603E+04  +1.588E+05  -8.145E+03  +1.704E+06
 +3.93E+00  +3.30E-01  -5.943E+03  -3.921E+04  -2.043E+03  +3.617E+04  -5.786E+03  -2.229E+05  -1.470E+06  -7.660E+04  +1.356E+05  -2.170E+04  +1.379E+06
 +3.93E+00  +6.70E-01  -3.128E+03  -2.807E+04  -3.390E+03  +3.412E+04  -4.303E+03  -1.173E+05  -1.053E+06  -1.271E+05  +1.280E+05  -1.614E+04  +1.023E+06
 +3.93E+00  +9.31E-01  -8.575E+02  -2.068E+04  -4.388E+03  +2.823E+04  -2.919E+03  -3.216E+04  -7.754E+05  -1.645E+05  +1.059E+05  -1.095E+04  +8.115E+05

element # = 5     type =16-n plate
 XX         YY         MXX         MYY         MXY         QYZ         QZX         SIGXX       SIGYY       TAUXY       TAUXZ(Z=0)  TAUYZ(Z=0)   SIGV
 +4.07E+00  +6.94E-02  -8.208E+03  -4.987E+04  -8.408E+02  +4.306E+04  -1.903E+03  -3.078E+05  -1.870E+06  -3.153E+04  +1.615E+05  -7.136E+03  +1.738E+06
 +4.07E+00  +3.30E-01  -6.065E+03  -4.001E+04  -1.789E+03  +3.682E+04  -5.069E+03  -2.274E+05  -1.500E+06  -6.709E+04  +1.381E+05  -1.901E+04  +1.405E+06
 +4.07E+00  +6.70E-01  -3.196E+03  -2.867E+04  -2.972E+03  +3.476E+04  -3.761E+03  -1.198E+05  -1.075E+06  -1.114E+05  +1.304E+05  -1.410E+04  +1.039E+06
 +4.07E+00  +9.31E-01  -8.773E+02  -2.114E+04  -3.849E+03  +2.881E+04  -2.532E+03  -3.290E+04  -7.926E+05  -1.443E+05  +1.080E+05  -9.497E+03  +8.159E+05
 +4.33E+00  +6.94E-02  -8.450E+03  -5.133E+04  -6.100E+02  +4.412E+04  -1.384E+03  -3.169E+05  -1.925E+06  -2.287E+04  +1.654E+05  -5.189E+03  +1.788E+06
 +4.33E+00  +3.30E-01  -6.252E+03  -4.122E+04  -1.299E+03  +3.779E+04  -3.695E+03  -2.345E+05  -1.546E+06  -4.871E+04  +1.417E+05  -1.386E+04  +1.445E+06
 +4.33E+00  +6.70E-01  -3.304E+03  -2.958E+04  -2.160E+03  +3.573E+04  -2.774E+03  -1.239E+05  -1.109E+06  -8.101E+04  +1.340E+05  -1.040E+04  +1.062E+06
 +4.33E+00  +9.31E-01  -9.157E+02  -2.183E+04  -2.800E+03  +2.966E+04  -1.911E+03  -3.434E+04  -8.188E+05  -1.050E+05  +1.112E+05  -7.166E+03  +8.225E+05
 +4.67E+00  +6.94E-02  -8.648E+03  -5.254E+04  -3.026E+02  +4.498E+04  -6.869E+02  -3.243E+05  -1.970E+06  -1.135E+04  +1.687E+05  -2.576E+03  +1.830E+06
 +4.67E+00  +3.30E-01  -6.405E+03  -4.222E+04  -6.453E+02  +3.859E+04  -1.832E+03  -2.402E+05  -1.583E+06  -2.420E+04  +1.447E+05  -6.869E+03  +1.478E+06
 +4.67E+00  +6.70E-01  -3.392E+03  -3.033E+04  -1.074E+03  +3.651E+04  -1.363E+03  -1.272E+05  -1.137E+06  -4.029E+04  +1.369E+05  -5.109E+03  +1.082E+06
 +4.67E+00  +9.31E-01  -9.453E+02  -2.241E+04  -1.394E+03  +3.037E+04  -9.163E+02  -3.545E+04  -8.404E+05  -5.226E+04  +1.139E+05  -3.436E+03  +8.282E+05
 +4.93E+00  +6.94E-02  -8.710E+03  -5.291E+04  -6.373E+01  +4.525E+04  -1.447E+02  -3.266E+05  -1.984E+06  -2.390E+03  +1.697E+05  -5.427E+02  +1.843E+06
 +4.93E+00  +3.30E-01  -6.452E+03  -4.253E+04  -1.357E+02  +3.883E+04  -3.889E+02  -2.420E+05  -1.595E+06  -5.089E+03  +1.456E+05  -1.459E+03  +1.489E+06
 +4.93E+00  +6.70E-01  -3.417E+03  -3.056E+04  -2.259E+02  +3.676E+04  -3.010E+02  -1.281E+05  -1.146E+06  -8.470E+03  +1.378E+05  -1.129E+03  +1.088E+06
 +4.93E+00  +9.31E-01  -9.508E+02  -2.259E+04  -2.930E+02  +3.059E+04  -2.204E+02  -3.566E+04  -8.471E+05  -1.099E+04  +1.147E+05  -8.265E+02  +8.300E+05

element # = 6     type =16-n plate
 XX         YY         MXX         MYY         MXY         QYZ         QZX         SIGXX       SIGYY       TAUXY       TAUXZ(Z=0)  TAUYZ(Z=0)   SIGV
 +5.07E+00  +6.94E-02  -8.710E+03  -5.291E+04  +6.373E+01  +4.525E+04  +1.447E+02  -3.266E+05  -1.984E+06  +2.390E+03  +1.697E+05  +5.427E+02  +1.843E+06
 +5.07E+00  +3.30E-01  -6.452E+03  -4.253E+04  +1.357E+02  +3.883E+04  +3.889E+02  -2.420E+05  -1.595E+06  +5.089E+03  +1.456E+05  +1.459E+03  +1.489E+06
 +5.07E+00  +6.70E-01  -3.417E+03  -3.056E+04  +2.259E+02  +3.676E+04  +3.010E+02  -1.281E+05  -1.146E+06  +8.470E+03  +1.378E+05  +1.129E+03  +1.088E+06
 +5.07E+00  +9.31E-01  -9.508E+02  -2.259E+04  +2.930E+02  +3.059E+04  +2.204E+02  -3.566E+04  -8.471E+05  +1.099E+04  +1.147E+05  +8.265E+02  +8.300E+05
 +5.33E+00  +6.94E-02  -8.648E+03  -5.254E+04  +3.026E+02  +4.498E+04  +6.869E+02  -3.243E+05  -1.970E+06  +1.135E+04  +1.687E+05  +2.576E+03  +1.830E+06
 +5.33E+00  +3.30E-01  -6.405E+03  -4.222E+04  +6.453E+02  +3.859E+04  +1.832E+03  -2.402E+05  -1.583E+06  +2.420E+04  +1.447E+05  +6.869E+03  +1.478E+06
 +5.33E+00  +6.70E-01  -3.392E+03  -3.033E+04  +1.074E+03  +3.651E+04  +1.363E+03  -1.272E+05  -1.137E+06  +4.029E+04  +1.369E+05  +5.109E+03  +1.082E+06
 +5.33E+00  +9.31E-01  -9.453E+02  -2.241E+04  +1.394E+03  +3.037E+04  +9.163E+02  -3.545E+04  -8.404E+05  +5.226E+04  +1.139E+05  +3.436E+03  +8.282E+05
 +5.67E+00  +6.94E-02  -8.450E+03  -5.133E+04  +6.100E+02  +4.412E+04  +1.384E+03  -3.169E+05  -1.925E+06  +2.287E+04  +1.654E+05  +5.189E+03  +1.788E+06
 +5.67E+00  +3.30E-01  -6.252E+03  -4.122E+04  +1.299E+03  +3.779E+04  +3.695E+03  -2.345E+05  -1.546E+06  +4.871E+04  +1.417E+05  +1.386E+04  +1.445E+06
 +5.67E+00  +6.70E-01  -3.304E+03  -2.958E+04  +2.160E+03  +3.573E+04  +2.774E+03  -1.239E+05  -1.109E+06  +8.101E+04  +1.340E+05  +1.040E+04  +1.062E+06
 +5.67E+00  +9.31E-01  -9.157E+02  -2.183E+04  +2.800E+03  +2.966E+04  +1.911E+03  -3.434E+04  -8.188E+05  +1.050E+05  +1.112E+05  +7.166E+03  +8.225E+05
 +5.93E+00  +6.94E-02  -8.208E+03  -4.987E+04  +8.408E+02  +4.306E+04  +1.903E+03  -3.078E+05  -1.870E+06  +3.153E+04  +1.615E+05  +7.136E+03  +1.738E+06
 +5.93E+00  +3.30E-01  -6.065E+03  -4.001E+04  +1.789E+03  +3.682E+04  +5.069E+03  -2.274E+05  -1.500E+06  +6.709E+04  +1.381E+05  +1.901E+04  +1.405E+06
 +5.93E+00  +6.70E-01  -3.196E+03  -2.867E+04  +2.972E+03  +3.476E+04  +3.761E+03  -1.198E+05  -1.075E+06  +1.114E+05  +1.304E+05  +1.410E+04  +1.039E+06
 +5.93E+00  +9.31E-01  -8.773E+02  -2.114E+04  +3.849E+03  +2.881E+04  +2.532E+03  -3.290E+04  -7.926E+05  +1.443E+05  +1.080E+05  +9.497E+03  +8.159E+05

element # = 7     type =16-n plate
 XX         YY         MXX         MYY         MXY         QYZ         QZX         SIGXX       SIGYY       TAUXY       TAUXZ(Z=0)  TAUYZ(Z=0)   SIGV
 +6.07E+00  +6.94E-02  -8.048E+03  -4.890E+04  +9.609E+02  +4.235E+04  +2.172E+03  -3.018E+05  -1.834E+06  +3.603E+04  +1.588E+05  +8.145E+03  +1.704E+06
 +6.07E+00  +3.30E-01  -5.943E+03  -3.921E+04  +2.043E+03  +3.617E+04  +5.786E+03  -2.229E+05  -1.470E+06  +7.660E+04  +1.356E+05  +2.170E+04  +1.379E+06
 +6.07E+00  +6.70E-01  -3.128E+03  -2.807E+04  +3.390E+03  +3.412E+04  +4.303E+03  -1.173E+05  -1.053E+06  +1.271E+05  +1.280E+05  +1.614E+04  +1.023E+06
 +6.07E+00  +9.31E-01  -8.575E+02  -2.068E+04  +4.388E+03  +2.823E+04  +2.919E+03  -3.216E+04  -7.754E+05  +1.645E+05  +1.059E+05  +1.095E+04  +8.115E+05
 +6.33E+00  +6.94E-02  -7.692E+03  -4.674E+04  +1.180E+03  +4.074E+04  +2.659E+03  -2.885E+05  -1.753E+06  +4.426E+04  +1.528E+05  +9.970E+03  +1.630E+06
 +6.33E+00  +3.30E-01  -5.673E+03  -3.743E+04  +2.505E+03  +3.470E+04  +7.058E+03  -2.128E+05  -1.404E+06  +9.395E+04  +1.301E+05  +2.647E+04  +1.320E+06
 +6.33E+00  +6.70E-01  -2.985E+03  -2.675E+04  +4.150E+03  +3.267E+04  +5.170E+03  -1.119E+05  -1.003E+06  +1.556E+05  +1.225E+05  +1.939E+04  +9.894E+05
 +6.33E+00  +9.31E-01  -8.275E+02  -1.967E+04  +5.365E+03  +2.694E+04  +3.411E+03  -3.103E+04  -7.375E+05  +2.012E+05  +1.010E+05  +1.279E+04  +8.021E+05
 +6.67E+00  +6.94E-02  -7.123E+03  -4.328E+04  +1.449E+03  +3.809E+04  +3.248E+03  -2.671E+05  -1.623E+06  +5.434E+04  +1.428E+05  +1.218E+04  +1.510E+06
 +6.67E+00  +3.30E-01  -5.247E+03  -3.459E+04  +3.066E+03  +3.229E+04  +8.602E+03  -1.968E+05  -1.297E+06  +1.150E+05  +1.211E+05  +3.226E+04  +1.227E+06
 +6.67E+00  +6.70E-01  -2.768E+03  -2.465E+04  +5.062E+03  +3.029E+04  +6.257E+03  -1.038E+05  -9.243E+05  +1.898E+05  +1.136E+05  +2.346E+04  +9.366E+05
 +6.67E+00  +9.31E-01  -7.967E+02  -1.808E+04  +6.530E+03  +2.484E+04  +4.102E+03  -2.988E+04  -6.778E+05  +2.449E+05  +9.314E+04  +1.538E+04  +7.874E+05
 +6.93E+00  +6.94E-02  -6.612E+03  -4.017E+04  +1.639E+03  +3.564E+04  +3.653E+03  -2.480E+05  -1.506E+06  +6.145E+04  +1.337E+05  +1.370E+04  +1.403E+06
 +6.93E+00  +3.30E-01  -4.869E+03  -3.206E+04  +3.458E+03  +3.008E+04  +9.630E+03  -1.826E+05  -1.202E+06  +1.297E+05  +1.128E+05  +3.611E+04  +1.144E+06
 +6.93E+00  +6.70E-01  -2.584E+03  -2.279E+04  +5.693E+03  +2.811E+04  +6.872E+03  -9.689E+04  -8.545E+05  +2.135E+05  +1.054E+05  +2.577E+04  +8.907E+05
 +6.93E+00  +9.31E-01  -7.840E+02  -1.668E+04  +7.330E+03  +2.293E+04  +4.352E+03  -2.940E+04  -6.253E+05  +2.749E+05  +8.597E+04  +1.632E+04  +7.747E+05

element # = 8     type =16-n plate
 XX         YY         MXX         MYY         MXY         QYZ         QZX         SIGXX       SIGYY       TAUXY       TAUXZ(Z=0)  TAUYZ(Z=0)   SIGV
 +7.07E+00  +6.94E-02  -6.316E+03  -3.836E+04  +1.732E+03  +3.418E+04  +3.848E+03  -2.369E+05  -1.439E+06  +6.494E+04  +1.282E+05  +1.443E+04  +1.341E+06
 +7.07E+00  +3.30E-01  -4.654E+03  -3.059E+04  +3.648E+03  +2.877E+04  +1.014E+04  -1.745E+05  -1.147E+06  +1.368E+05  +1.079E+05  +3.801E+04  +1.097E+06
 +7.07E+00  +6.70E-01  -2.488E+03  -2.172E+04  +5.994E+03  +2.682E+04  +7.216E+03  -9.329E+04  -8.144E+05  +2.248E+05  +1.006E+05  +2.706E+04  +8.646E+05
 +7.07E+00  +9.31E-01  -7.937E+02  -1.588E+04  +7.709E+03  +2.180E+04  +4.569E+03  -2.976E+04  -5.954E+05  +2.891E+05  +8.174E+04  +1.713E+04  +7.670E+05
 +7.33E+00  +6.94E-02  -5.720E+03  -3.472E+04  +1.890E+03  +3.114E+04  +4.168E+03  -2.145E+05  -1.302E+06  +7.089E+04  +1.168E+05  +1.563E+04  +1.215E+06
 +7.33E+00  +3.30E-01  -4.233E+03  -2.765E+04  +3.969E+03  +2.605E+04  +1.090E+04  -1.587E+05  -1.037E+06  +1.488E+05  +9.768E+04  +4.088E+04  +1.001E+06
 +7.33E+00  +6.70E-01  -2.323E+03  -1.959E+04  +6.497E+03  +2.414E+04  +7.537E+03  -8.711E+04  -7.346E+05  +2.436E+05  +9.051E+04  +2.827E+04  +8.132E+05
 +7.33E+00  +9.31E-01  -8.586E+02  -1.430E+04  +8.335E+03  +1.947E+04  +4.516E+03  -3.220E+04  -5.362E+05  +3.126E+05  +7.300E+04  +1.693E+04  +7.512E+05
 +7.67E+00  +6.94E-02  -4.879E+03  -2.956E+04  +2.053E+03  +2.661E+04  +4.477E+03  -1.830E+05  -1.108E+06  +7.697E+04  +9.978E+04  +1.679E+04  +1.038E+06
 +7.67E+00  +3.30E-01  -3.659E+03  -2.351E+04  +4.285E+03  +2.204E+04  +1.164E+04  -1.372E+05  -8.817E+05  +1.607E+05  +8.264E+04  +4.366E+04  +8.676E+05
 +7.67E+00  +6.70E-01  -2.143E+03  -1.663E+04  +6.975E+03  +2.020E+04  +7.879E+03  -8.037E+04  -6.238E+05  +2.616E+05  +7.574E+04  +2.954E+04  +7.421E+05
 +7.67E+00  +9.31E-01  -1.029E+03  -1.213E+04  +8.918E+03  +1.608E+04  +4.559E+03  -3.859E+04  -4.550E+05  +3.344E+05  +6.030E+04  +1.710E+04  +7.256E+05
 +7.93E+00  +6.94E-02  -4.198E+03  -2.537E+04  +2.136E+03  +2.272E+04  +4.604E+03  -1.574E+05  -9.512E+05  +8.009E+04  +8.520E+04  +1.727E+04  +8.939E+05
 +7.93E+00  +3.30E-01  -3.213E+03  -2.019E+04  +4.439E+03  +1.865E+04  +1.186E+04  -1.205E+05  -7.570E+05  +1.665E+05  +6.992E+04  +4.448E+04  +7.612E+05
 +7.93E+00  +6.70E-01  -2.042E+03  -1.429E+04  +7.193E+03  +1.687E+04  +7.698E+03  -7.659E+04  -5.360E+05  +2.697E+05  +6.328E+04  +2.887E+04  +6.858E+05
 +7.93E+00  +9.31E-01  -1.233E+03  -1.044E+04  +9.169E+03  +1.326E+04  +4.069E+03  -4.624E+04  -3.914E+05  +3.438E+05  +4.971E+04  +1.526E+04  +7.014E+05

element # = 9     type =16-n plate
 XX         YY         MXX         MYY         MXY         QYZ         QZX         SIGXX       SIGYY       TAUXY       TAUXZ(Z=0)  TAUYZ(Z=0)   SIGV
 +8.07E+00  +6.94E-02  -3.829E+03  -2.308E+04  +2.161E+03  +2.051E+04  +4.632E+03  -1.436E+05  -8.656E+05  +8.102E+04  +7.690E+04  +1.737E+04  +8.156E+05
 +8.07E+00  +3.30E-01  -2.982E+03  -1.839E+04  +4.475E+03  +1.672E+04  +1.191E+04  -1.118E+05  -6.895E+05  +1.678E+05  +6.271E+04  +4.466E+04  +7.038E+05
 +8.07E+00  +6.70E-01  -2.018E+03  -1.304E+04  +7.233E+03  +1.498E+04  +7.666E+03  -7.567E+04  -4.890E+05  +2.712E+05  +5.619E+04  +2.875E+04  +6.546E+05
 +8.07E+00  +9.31E-01  -1.391E+03  -9.540E+03  +9.208E+03  +1.165E+04  +3.994E+03  -5.215E+04  -3.577E+05  +3.453E+05  +4.368E+04  +1.498E+04  +6.854E+05
 +8.33E+00  +6.94E-02  -3.140E+03  -1.876E+04  +2.167E+03  +1.609E+04  +4.562E+03  -1.177E+05  -7.036E+05  +8.125E+04  +6.035E+04  +1.711E+04  +6.677E+05
 +8.33E+00  +3.30E-01  -2.591E+03  -1.501E+04  +4.467E+03  +1.294E+04  +1.156E+04  -9.717E+04  -5.629E+05  +1.675E+05  +4.853E+04  +4.335E+04  +5.965E+05
 +8.33E+00  +6.70E-01  -2.064E+03  -1.072E+04  +7.185E+03  +1.129E+04  +6.953E+03  -7.739E+04  -4.021E+05  +2.695E+05  +4.232E+04  +2.607E+04  +5.953E+05
 +8.33E+00  +9.31E-01  -1.822E+03  -7.899E+03  +9.122E+03  +8.532E+03  +3.027E+03  -6.831E+04  -2.962E+05  +3.421E+05  +3.200E+04  +1.135E+04  +6.506E+05
 +8.67E+00  +6.94E-02  -2.272E+03  -1.326E+04  +2.059E+03  +1.005E+04  +4.258E+03  -8.519E+04  -4.973E+05  +7.720E+04  +3.770E+04  +1.597E+04  +4.796E+05
 +8.67E+00  +3.30E-01  -2.158E+03  -1.076E+04  +4.220E+03  +7.837E+03  +1.068E+04  -8.092E+04  -4.035E+05  +1.582E+05  +2.939E+04  +4.004E+04  +4.602E+05
 +8.67E+00  +6.70E-01  -2.268E+03  -7.848E+03  +6.759E+03  +6.280E+03  +6.073E+03  -8.505E+04  -2.943E+05  +2.534E+05  +2.355E+04  +2.277E+04  +5.114E+05
 +8.67E+00  +9.31E-01  -2.583E+03  -5.891E+03  +8.563E+03  +4.298E+03  +2.175E+03  -9.687E+04  -2.209E+05  +3.211E+05  +1.612E+04  +8.158E+03  +5.883E+05
 +8.93E+00  +6.94E-02  -1.667E+03  -9.361E+03  +1.873E+03  +5.445E+03  +3.807E+03  -6.251E+04  -3.510E+05  +7.025E+04  +2.042E+04  +1.428E+04  +3.464E+05
 +8.93E+00  +3.30E-01  -1.910E+03  -7.767E+03  +3.831E+03  +3.889E+03  +9.365E+03  -7.162E+04  -2.913E+05  +1.437E+05  +1.458E+04  +3.512E+04  +3.620E+05
 +8.93E+00  +6.70E-01  -2.551E+03  -5.853E+03  +6.132E+03  +2.311E+03  +4.735E+03  -9.564E+04  -2.195E+05  +2.300E+05  +8.667E+03  +1.775E+04  +4.416E+05
 +8.93E+00  +9.31E-01  -3.330E+03  -4.519E+03  +7.770E+03  +7.945E+02  +7.926E+02  -1.249E+05  -1.695E+05  +2.914E+05  +2.979E+03  +2.972E+03  +5.271E+05

element # = 10     type =16-n plate
 XX         YY         MXX         MYY         MXY         QYZ         QZX         SIGXX       SIGYY       TAUXY       TAUXZ(Z=0)  TAUYZ(Z=0)   SIGV
 +9.07E+00  +6.94E-02  -1.382E+03  -7.417E+03  +1.744E+03  +3.140E+03  +3.461E+03  -5.184E+04  -2.781E+05  +6.540E+04  +1.178E+04  +1.298E+04  +2.801E+05
 +9.07E+00  +3.30E-01  -1.849E+03  -6.287E+03  +3.601E+03  +2.169E+03  +8.416E+03  -6.933E+04  -2.358E+05  +1.350E+05  +8.135E+03  +3.156E+04  +3.143E+05
 +9.07E+00  +6.70E-01  -2.791E+03  -4.874E+03  +5.779E+03  +8.129E+02  +3.963E+03  -1.047E+05  -1.828E+05  +2.167E+05  +3.048E+03  +1.486E+04  +4.076E+05
 +9.07E+00  +9.31E-01  -3.842E+03  -3.850E+03  +7.331E+03  -3.245E+02  +2.122E+02  -1.441E+05  -1.444E+05  +2.749E+05  -1.217E+03  +7.956E+02  +4.975E+05
 +9.33E+00  +6.94E-02  -9.322E+02  -4.351E+03  +1.339E+03  -6.607E+02  +2.762E+03  -3.496E+04  -1.632E+05  +5.023E+04  -2.478E+03  +1.036E+04  +1.724E+05
 +9.33E+00  +3.30E-01  -1.781E+03  -3.922E+03  +2.784E+03  -1.284E+03  +6.729E+03  -6.679E+04  -1.471E+05  +1.044E+05  -4.814E+03  +2.523E+04  +2.213E+05
 +9.33E+00  +6.70E-01  -3.306E+03  -3.301E+03  +4.527E+03  -2.924E+03  +2.909E+03  -1.240E+05  -1.238E+05  +1.697E+05  -1.097E+04  +1.091E+04  +3.190E+05
 +9.33E+00  +9.31E-01  -4.882E+03  -2.795E+03  +5.780E+03  -4.052E+03  -8.111E+02  -1.831E+05  -1.048E+05  +2.167E+05  -1.520E+04  -3.041E+03  +4.077E+05
 +9.67E+00  +6.94E-02  -5.139E+02  -1.606E+03  +7.196E+02  -3.060E+03  +1.785E+03  -1.927E+04  -6.023E+04  +2.699E+04  -1.147E+04  +6.693E+03  +7.087E+04
 +9.67E+00  +3.30E-01  -1.694E+03  -1.691E+03  +1.638E+03  -4.284E+03  +4.285E+03  -6.351E+04  -6.341E+04  +6.141E+04  -1.607E+04  +1.607E+04  +1.239E+05
 +9.67E+00  +6.70E-01  -3.926E+03  -1.778E+03  +2.782E+03  -6.736E+03  +1.292E+03  -1.472E+05  -6.669E+04  +1.043E+05  -2.526E+04  +4.844E+03  +2.213E+05
 +9.67E+00  +9.31E-01  -6.294E+03  -1.848E+03  +3.598E+03  -8.453E+03  -2.137E+03  -2.360E+05  -6.932E+04  +1.349E+05  -3.170E+04  -8.015E+03  +3.143E+05
 +9.93E+00  +6.94E-02  -2.946E+02  -2.944E+02  +2.250E+02  -1.223E+03  +1.223E+03  -1.105E+04  -1.104E+04  +8.437E+03  -4.586E+03  +4.586E+03  +1.832E+04
 +9.93E+00  +3.30E-01  -1.606E+03  -5.131E+02  +7.186E+02  -1.784E+03  +3.064E+03  -6.023E+04  -1.924E+04  +2.695E+04  -6.691E+03  +1.149E+04  +7.083E+04
 +9.93E+00  +6.70E-01  -4.347E+03  -9.305E+02  +1.336E+03  -2.762E+03  +6.934E+02  -1.630E+05  -3.489E+04  +5.010E+04  -1.036E+04  +2.600E+03  +1.722E+05
 +9.93E+00  +9.31E-01  -7.408E+03  -1.380E+03  +1.739E+03  -3.465E+03  -3.053E+03  -2.778E+05  -5.175E+04  +6.521E+04  -1.300E+04  -1.145E+04  +2.797E+05

element # = 11     type =16-n plate
 XX         YY         MXX         MYY         MXY         QYZ         QZX         SIGXX       SIGYY       TAUXY       TAUXZ(Z=0)  TAUYZ(Z=0)   SIGV
 +6.94E-02  +1.07E+00  -9.349E+03  -1.665E+03  -1.868E+03  -3.817E+03  +5.312E+03  -3.506E+05  -6.242E+04  -7.005E+04  -1.431E+04  +1.992E+04  +3.459E+05
 +6.94E-02  +1.33E+00  -1.324E+04  -2.271E+03  -2.055E+03  -4.284E+03  +9.804E+03  -4.967E+05  -8.516E+04  -7.708E+04  -1.607E+04  +3.676E+04  +4.790E+05
 +6.94E-02  +1.67E+00  -1.876E+04  -3.145E+03  -2.175E+03  -4.627E+03  +1.563E+04  -7.036E+05  -1.179E+05  -8.155E+04  -1.735E+04  +5.863E+04  +6.678E+05
 +6.94E-02  +1.93E+00  -2.313E+04  -3.846E+03  -2.185E+03  -4.748E+03  +1.986E+04  -8.672E+05  -1.442E+05  -8.195E+04  -1.780E+04  +7.446E+04  +8.173E+05
 +3.30E-01  +1.07E+00  -7.777E+03  -1.914E+03  -3.830E+03  -9.420E+03  +3.833E+03  -2.916E+05  -7.177E+04  -1.436E+05  -3.532E+04  +1.437E+04  +3.621E+05
 +3.30E-01  +1.33E+00  -1.078E+04  -2.176E+03  -4.227E+03  -1.080E+04  +7.714E+03  -4.043E+05  -8.161E+04  -1.585E+05  -4.049E+04  +2.893E+04  +4.610E+05
 +3.30E-01  +1.67E+00  -1.508E+04  -2.638E+03  -4.506E+03  -1.181E+04  +1.270E+04  -5.653E+05  -9.894E+04  -1.690E+05  -4.427E+04  +4.764E+04  +5.992E+05
 +3.30E-01  +1.93E+00  -1.852E+04  -3.062E+03  -4.554E+03  -1.231E+04  +1.638E+04  -6.943E+05  -1.148E+05  -1.708E+05  -4.617E+04  +6.143E+04  +7.093E+05
 +6.70E-01  +1.07E+00  -5.864E+03  -2.567E+03  -6.138E+03  -4.848E+03  +2.286E+03  -2.199E+05  -9.626E+04  -2.302E+05  -1.818E+04  +8.573E+03  +4.420E+05
 +6.70E-01  +1.33E+00  -7.875E+03  -2.322E+03  -6.784E+03  -6.301E+03  +6.191E+03  -2.953E+05  -8.706E+04  -2.544E+05  -2.363E+04  +2.322E+04  +5.131E+05
 +6.70E-01  +1.67E+00  -1.080E+04  -2.185E+03  -7.271E+03  -7.321E+03  +1.109E+04  -4.048E+05  -8.192E+04  -2.727E+05  -2.746E+04  +4.157E+04  +6.004E+05
 +6.70E-01  +1.93E+00  -1.318E+04  -2.207E+03  -7.394E+03  -8.221E+03  +1.468E+04  -4.944E+05  -8.277E+04  -2.773E+05  -3.083E+04  +5.506E+04  +6.641E+05
 +9.31E-01  +1.07E+00  -4.510E+03  -3.360E+03  -7.777E+03  -9.269E+02  +9.072E+02  -1.691E+05  -1.260E+05  -2.917E+05  -3.476E+03  +3.402E+03  +5.276E+05
 +9.31E-01  +1.33E+00  -5.889E+03  -2.674E+03  -8.598E+03  -2.459E+03  +4.400E+03  -2.208E+05  -1.003E+05  -3.224E+05  -9.220E+03  +1.650E+04  +5.904E+05
 +9.31E-01  +1.67E+00  -7.928E+03  -2.021E+03  -9.240E+03  -3.448E+03  +8.610E+03  -2.973E+05  -7.577E+04  -3.465E+05  -1.293E+04  +3.229E+04  +6.571E+05
 +9.31E-01  +1.93E+00  -9.622E+03  -1.696E+03  -9.430E+03  -4.618E+03  +1.171E+04  -3.608E+05  -6.359E+04  -3.536E+05  -1.732E+04  +4.390E+04  +6.974E+05

element # = 12     type =16-n plate
 XX         YY         MXX         MYY         MXY         QYZ         QZX         SIGXX       SIGYY       TAUXY       TAUXZ(Z=0)  TAUYZ(Z=0)   SIGV
 +1.07E+00  +1.07E+00  -3.844E+03  -3.879E+03  -8.234E+03  +2.214E+02  +3.523E+02  -1.441E+05  -1.455E+05  -3.088E+05  +8.302E+02  +1.321E+03  +5.541E+05
 +1.07E+00  +1.33E+00  -4.935E+03  -2.945E+03  -9.106E+03  -1.482E+03  +3.979E+03  -1.850E+05  -1.105E+05  -3.415E+05  -5.559E+03  +1.492E+04  +6.130E+05
 +1.07E+00  +1.67E+00  -6.570E+03  -2.002E+03  -9.799E+03  -2.529E+03  +8.301E+03  -2.464E+05  -7.509E+04  -3.675E+05  -9.484E+03  +3.113E+04  +6.730E+05
 +1.07E+00  +1.93E+00  -7.948E+03  -1.484E+03  -1.002E+04  -3.843E+03  +1.145E+04  -2.981E+05  -5.566E+04  -3.756E+05  -1.441E+04  +4.295E+04  +7.061E+05
 +1.33E+00  +1.07E+00  -2.833E+03  -4.976E+03  -9.076E+03  +3.869E+03  -1.184E+03  -1.062E+05  -1.866E+05  -3.404E+05  +1.451E+04  -4.439E+03  +6.114E+05
 +1.33E+00  +1.33E+00  -3.415E+03  -3.565E+03  -1.004E+04  +1.929E+03  +2.242E+03  -1.281E+05  -1.337E+05  -3.766E+05  +7.235E+03  +8.409E+03  +6.654E+05
 +1.33E+00  +1.67E+00  -4.356E+03  -2.072E+03  -1.083E+04  +8.448E+02  +6.220E+03  -1.633E+05  -7.771E+04  -4.061E+05  +3.168E+03  +2.332E+04  +7.175E+05
 +1.33E+00  +1.93E+00  -5.192E+03  -1.190E+03  -1.110E+04  -7.443E+02  +9.084E+03  -1.947E+05  -4.461E+04  -4.161E+05  -2.791E+03  +3.407E+04  +7.420E+05
 +1.67E+00  +1.07E+00  -1.757E+03  -6.600E+03  -9.678E+03  +8.233E+03  -2.093E+03  -6.588E+04  -2.475E+05  -3.629E+05  +3.087E+04  -7.848E+03  +6.667E+05
 +1.67E+00  +1.33E+00  -1.736E+03  -4.548E+03  -1.073E+04  +5.898E+03  +1.282E+03  -6.509E+04  -1.705E+05  -4.023E+05  +2.212E+04  +4.808E+03  +7.125E+05
 +1.67E+00  +1.67E+00  -1.855E+03  -2.316E+03  -1.160E+04  +4.715E+03  +5.142E+03  -6.957E+04  -8.686E+04  -4.349E+05  +1.768E+04  +1.928E+04  +7.575E+05
 +1.67E+00  +1.93E+00  -2.050E+03  -9.465E+02  -1.191E+04  +2.750E+03  +7.903E+03  -7.688E+04  -3.549E+04  -4.467E+05  +1.031E+04  +2.964E+04  +7.766E+05
 +1.93E+00  +1.07E+00  -1.109E+03  -7.945E+03  -9.781E+03  +1.142E+04  -3.188E+03  -4.160E+04  -2.979E+05  -3.668E+05  +4.283E+04  -1.196E+04  +6.941E+05
 +1.93E+00  +1.33E+00  -6.757E+02  -5.398E+03  -1.086E+04  +8.756E+03  -7.337E+01  -2.534E+04  -2.024E+05  -4.073E+05  +3.283E+04  -2.752E+02  +7.309E+05
 +1.93E+00  +1.67E+00  -2.325E+02  -2.600E+03  -1.177E+04  +7.485E+03  +3.435E+03  -8.719E+03  -9.749E+04  -4.414E+05  +2.807E+04  +1.288E+04  +7.702E+05
 +1.93E+00  +1.93E+00  +1.050E+01  -8.590E+02  -1.211E+04  +5.226E+03  +5.921E+03  +3.937E+02  -3.221E+04  -4.542E+05  +1.960E+04  +2.220E+04  +7.874E+05

element # = 13     type =16-n plate
 XX         YY         MXX         MYY         MXY         QYZ         QZX         SIGXX       SIGYY       TAUXY       TAUXZ(Z=0)  TAUYZ(Z=0)   SIGV
 +2.07E+00  +1.07E+00  -8.486E+02  -8.686E+03  -9.747E+03  +1.306E+04  -3.270E+03  -3.182E+04  -3.257E+05  -3.655E+05  +4.899E+04  -1.226E+04  +7.054E+05
 +2.07E+00  +1.33E+00  -2.162E+02  -5.879E+03  -1.084E+04  +1.022E+04  -1.844E+02  -8.109E+03  -2.205E+05  -4.063E+05  +3.833E+04  -6.915E+02  +7.363E+05
 +2.07E+00  +1.67E+00  +4.979E+02  -2.785E+03  -1.176E+04  +8.904E+03  +3.294E+03  +1.867E+04  -1.044E+05  -4.408E+05  +3.339E+04  +1.235E+04  +7.721E+05
 +2.07E+00  +1.93E+00  +9.525E+02  -8.500E+02  -1.211E+04  +6.489E+03  +5.762E+03  +3.572E+04  -3.187E+04  -4.541E+05  +2.433E+04  +2.161E+04  +7.886E+05
 +2.33E+00  +1.07E+00  -4.722E+02  -1.010E+04  -9.494E+03  +1.594E+04  -3.877E+03  -1.771E+04  -3.786E+05  -3.560E+05  +5.978E+04  -1.454E+04  +7.191E+05
 +2.33E+00  +1.33E+00  +4.916E+02  -6.814E+03  -1.058E+04  +1.277E+04  -1.072E+03  +1.843E+04  -2.555E+05  -3.966E+05  +4.790E+04  -4.021E+03  +7.363E+05
 +2.33E+00  +1.67E+00  +1.661E+03  -3.178E+03  -1.150E+04  +1.137E+04  +2.061E+03  +6.229E+04  -1.192E+05  -4.313E+05  +4.265E+04  +7.728E+03  +7.639E+05
 +2.33E+00  +1.93E+00  +2.472E+03  -8.899E+02  -1.187E+04  +8.672E+03  +4.273E+03  +9.271E+04  -3.337E+04  -4.450E+05  +3.252E+04  +1.602E+04  +7.790E+05
 +2.67E+00  +1.07E+00  -1.035E+02  -1.191E+04  -8.889E+03  +1.938E+04  -3.894E+03  -3.880E+03  -4.465E+05  -3.334E+05  +7.269E+04  -1.460E+04  +7.287E+05
 +2.67E+00  +1.33E+00  +1.243E+03  -8.039E+03  -9.928E+03  +1.583E+04  -1.317E+03  +4.662E+04  -3.015E+05  -3.723E+05  +5.935E+04  -4.938E+03  +7.231E+05
 +2.67E+00  +1.67E+00  +2.941E+03  -3.735E+03  -1.083E+04  +1.433E+04  +1.570E+03  +1.103E+05  -1.401E+05  -4.061E+05  +5.372E+04  +5.887E+03  +7.361E+05
 +2.67E+00  +1.93E+00  +4.167E+03  -1.008E+03  -1.120E+04  +1.128E+04  +3.612E+03  +1.563E+05  -3.781E+04  -4.198E+05  +4.228E+04  +1.354E+04  +7.487E+05
 +2.93E+00  +1.07E+00  +9.211E+01  -1.323E+04  -8.232E+03  +2.175E+04  -4.060E+03  +3.454E+03  -4.963E+05  -3.087E+05  +8.155E+04  -1.522E+04  +7.307E+05
 +2.93E+00  +1.33E+00  +1.692E+03  -8.953E+03  -9.212E+03  +1.792E+04  -1.811E+03  +6.347E+04  -3.358E+05  -3.454E+05  +6.721E+04  -6.792E+03  +7.043E+05
 +2.93E+00  +1.67E+00  +3.742E+03  -4.175E+03  -1.007E+04  +1.636E+04  +6.905E+02  +1.403E+05  -1.566E+05  -3.776E+05  +6.134E+04  +2.589E+03  +7.028E+05
 +2.93E+00  +1.93E+00  +5.248E+03  -1.137E+03  -1.043E+04  +1.306E+04  +2.456E+03  +1.968E+05  -4.265E+04  -3.910E+05  +4.899E+04  +9.208E+03  +7.124E+05

element # = 14     type =16-n plate
 XX         YY         MXX         MYY         MXY         QYZ         QZX         SIGXX       SIGYY       TAUXY       TAUXZ(Z=0)  TAUYZ(Z=0)   SIGV
 +3.07E+00  +1.07E+00  +1.620E+02  -1.391E+04  -7.832E+03  +2.289E+04  -3.858E+03  +6.076E+03  -5.216E+05  -2.937E+05  +8.584E+04  -1.447E+04  +7.308E+05
 +3.07E+00  +1.33E+00  +1.879E+03  -9.424E+03  -8.773E+03  +1.894E+04  -1.701E+03  +7.048E+04  -3.534E+05  -3.290E+05  +7.102E+04  -6.380E+03  +6.924E+05
 +3.07E+00  +1.67E+00  +4.093E+03  -4.411E+03  -9.599E+03  +1.734E+04  +7.104E+02  +1.535E+05  -1.654E+05  -3.600E+05  +6.504E+04  +2.664E+03  +6.819E+05
 +3.07E+00  +1.93E+00  +5.728E+03  -1.219E+03  -9.947E+03  +1.393E+04  +2.418E+03  +2.148E+05  -4.572E+04  -3.730E+05  +5.224E+04  +9.067E+03  +6.896E+05
 +3.33E+00  +1.07E+00  +2.469E+02  -1.510E+04  -6.985E+03  +2.483E+04  -3.703E+03  +9.257E+03  -5.662E+05  -2.620E+05  +9.311E+04  -1.389E+04  +7.292E+05
 +3.33E+00  +1.33E+00  +2.154E+03  -1.026E+04  -7.837E+03  +2.066E+04  -1.868E+03  +8.078E+04  -3.848E+05  -2.939E+05  +7.746E+04  -7.004E+03  +6.669E+05
 +3.33E+00  +1.67E+00  +4.633E+03  -4.844E+03  -8.591E+03  +1.901E+04  +1.688E+02  +1.737E+05  -1.817E+05  -3.222E+05  +7.129E+04  +6.328E+02  +6.372E+05
 +3.33E+00  +1.93E+00  +6.480E+03  -1.386E+03  -8.914E+03  +1.539E+04  +1.605E+03  +2.430E+05  -5.197E+04  -3.343E+05  +5.773E+04  +6.018E+03  +6.400E+05
 +3.67E+00  +1.07E+00  +3.221E+02  -1.645E+04  -5.746E+03  +2.696E+04  -3.077E+03  +1.208E+04  -6.170E+05  -2.155E+05  +1.011E+05  -1.154E+04  +7.264E+05
 +3.67E+00  +1.33E+00  +2.436E+03  -1.122E+04  -6.458E+03  +2.255E+04  -1.557E+03  +9.137E+04  -4.209E+05  -2.422E+05  +8.455E+04  -5.839E+03  +6.324E+05
 +3.67E+00  +1.67E+00  +5.206E+03  -5.354E+03  -7.094E+03  +2.085E+04  +1.461E+02  +1.952E+05  -2.008E+05  -2.660E+05  +7.818E+04  +5.480E+02  +5.744E+05
 +3.67E+00  +1.93E+00  +7.285E+03  -1.596E+03  -7.371E+03  +1.701E+04  +1.357E+03  +2.732E+05  -5.987E+04  -2.764E+05  +6.379E+04  +5.087E+03  +5.690E+05
 +3.93E+00  +1.07E+00  +3.568E+02  -1.732E+04  -4.703E+03  +2.827E+04  -2.674E+03  +1.338E+04  -6.494E+05  -1.764E+05  +1.060E+05  -1.003E+04  +7.238E+05
 +3.93E+00  +1.33E+00  +2.598E+03  -1.184E+04  -5.292E+03  +2.372E+04  -1.489E+03  +9.743E+04  -4.440E+05  -1.984E+05  +8.895E+04  -5.585E+03  +6.067E+05
 +3.93E+00  +1.67E+00  +5.547E+03  -5.688E+03  -5.820E+03  +2.199E+04  -1.759E+02  +2.080E+05  -2.133E+05  -2.182E+05  +8.246E+04  -6.595E+02  +5.254E+05
 +3.93E+00  +1.93E+00  +7.770E+03  -1.742E+03  -6.052E+03  +1.802E+04  +7.520E+02  +2.914E+05  -6.532E+04  -2.270E+05  +6.757E+04  +2.820E+03  +5.126E+05

element # = 15     type =16-n plate
 XX         YY         MXX         MYY         MXY         QYZ         QZX         SIGXX       SIGYY       TAUXY       TAUXZ(Z=0)  TAUYZ(Z=0)   SIGV
 +4.07E+00  +1.07E+00  +3.646E+02  -1.771E+04  -4.126E+03  +2.885E+04  -2.306E+03  +1.367E+04  -6.641E+05  -1.547E+05  +1.082E+05  -8.647E+03  +7.226E+05
 +4.07E+00  +1.33E+00  +2.660E+03  -1.212E+04  -4.645E+03  +2.424E+04  -1.241E+03  +9.974E+04  -4.546E+05  -1.742E+05  +9.089E+04  -4.655E+03  +5.942E+05
 +4.07E+00  +1.67E+00  +5.684E+03  -5.843E+03  -5.112E+03  +2.249E+04  -4.836E+01  +2.132E+05  -2.191E+05  -1.917E+05  +8.435E+04  -1.813E+02  +5.004E+05
 +4.07E+00  +1.93E+00  +7.969E+03  -1.813E+03  -5.319E+03  +1.846E+04  +8.010E+02  +2.988E+05  -6.798E+04  -1.994E+05  +6.923E+04  +3.004E+03  +4.833E+05
 +4.33E+00  +1.07E+00  +3.656E+02  -1.831E+04  -3.003E+03  +2.972E+04  -1.763E+03  +1.371E+04  -6.866E+05  -1.126E+05  +1.114E+05  -6.612E+03  +7.204E+05
 +4.33E+00  +1.33E+00  +2.738E+03  -1.256E+04  -3.384E+03  +2.501E+04  -1.026E+03  +1.027E+05  -4.709E+05  -1.269E+05  +9.378E+04  -3.848E+03  +5.735E+05
 +4.33E+00  +1.67E+00  +5.871E+03  -6.086E+03  -3.726E+03  +2.324E+04  -2.129E+02  +2.202E+05  -2.282E+05  -1.397E+05  +8.717E+04  -7.984E+02  +4.576E+05
 +4.33E+00  +1.93E+00  +8.243E+03  -1.928E+03  -3.879E+03  +1.912E+04  +3.596E+02  +3.091E+05  -7.229E+04  -1.455E+05  +7.171E+04  +1.348E+03  +4.320E+05
 +4.67E+00  +1.07E+00  +3.691E+02  -1.880E+04  -1.496E+03  +3.043E+04  -8.307E+02  +1.384E+04  -7.052E+05  -5.608E+04  +1.141E+05  -3.115E+03  +7.188E+05
 +4.67E+00  +1.33E+00  +2.806E+03  -1.292E+04  -1.686E+03  +2.564E+04  -4.373E+02  +1.052E+05  -4.843E+05  -6.323E+04  +9.616E+04  -1.640E+03  +5.555E+05
 +4.67E+00  +1.67E+00  +6.032E+03  -6.287E+03  -1.858E+03  +2.386E+04  +9.960E+00  +2.262E+05  -2.358E+05  -6.969E+04  +8.949E+04  +3.735E+01  +4.179E+05
 +4.67E+00  +1.93E+00  +8.478E+03  -2.023E+03  -1.936E+03  +1.967E+04  +3.321E+02  +3.179E+05  -7.588E+04  -7.259E+04  +7.376E+04  +1.245E+03  +3.831E+05
 +4.93E+00  +1.07E+00  +3.750E+02  -1.896E+04  -3.144E+02  +3.065E+04  -2.111E+02  +1.406E+04  -7.109E+05  -1.179E+04  +1.149E+05  -7.918E+02  +7.183E+05
 +4.93E+00  +1.33E+00  +2.835E+03  -1.303E+04  -3.545E+02  +2.585E+04  -1.474E+02  +1.063E+05  -4.885E+05  -1.329E+04  +9.692E+04  -5.528E+02  +5.499E+05
 +4.93E+00  +1.67E+00  +6.093E+03  -6.348E+03  -3.907E+02  +2.406E+04  -8.269E+01  +2.285E+05  -2.380E+05  -1.465E+04  +9.023E+04  -3.101E+02  +4.048E+05
 +4.93E+00  +1.93E+00  +8.566E+03  -2.051E+03  -4.069E+02  +1.985E+04  -4.015E+01  +3.212E+05  -7.691E+04  -1.526E+04  +7.442E+04  -1.506E+02  +3.667E+05

element # = 16     type =16-n plate
 XX         YY         MXX         MYY         MXY         QYZ         QZX         SIGXX       SIGYY       TAUXY       TAUXZ(Z=0)  TAUYZ(Z=0)   SIGV
 +5.07E+00  +1.07E+00  +3.750E+02  -1.896E+04  +3.144E+02  +3.065E+04  +2.111E+02  +1.406E+04  -7.109E+05  +1.179E+04  +1.149E+05  +7.918E+02  +7.183E+05
 +5.07E+00  +1.33E+00  +2.835E+03  -1.303E+04  +3.545E+02  +2.585E+04  +1.474E+02  +1.063E+05  -4.885E+05  +1.329E+04  +9.692E+04  +5.528E+02  +5.499E+05
 +5.07E+00  +1.67E+00  +6.093E+03  -6.348E+03  +3.907E+02  +2.406E+04  +8.269E+01  +2.285E+05  -2.380E+05  +1.465E+04  +9.023E+04  +3.101E+02  +4.048E+05
 +5.07E+00  +1.93E+00  +8.566E+03  -2.051E+03  +4.069E+02  +1.985E+04  +4.015E+01  +3.212E+05  -7.691E+04  +1.526E+04  +7.442E+04  +1.506E+02  +3.667E+05
 +5.33E+00  +1.07E+00  +3.691E+02  -1.880E+04  +1.496E+03  +3.043E+04  +8.307E+02  +1.384E+04  -7.052E+05  +5.608E+04  +1.141E+05  +3.115E+03  +7.188E+05
 +5.33E+00  +1.33E+00  +2.806E+03  -1.292E+04  +1.686E+03  +2.564E+04  +4.373E+02  +1.052E+05  -4.843E+05  +6.323E+04  +9.616E+04  +1.640E+03  +5.555E+05
 +5.33E+00  +1.67E+00  +6.032E+03  -6.287E+03  +1.858E+03  +2.386E+04  -9.960E+00  +2.262E+05  -2.358E+05  +6.969E+04  +8.949E+04  -3.735E+01  +4.179E+05
 +5.33E+00  +1.93E+00  +8.478E+03  -2.023E+03  +1.936E+03  +1.967E+04  -3.321E+02  +3.179E+05  -7.588E+04  +7.259E+04  +7.376E+04  -1.245E+03  +3.831E+05
 +5.67E+00  +1.07E+00  +3.656E+02  -1.831E+04  +3.003E+03  +2.972E+04  +1.763E+03  +1.371E+04  -6.866E+05  +1.126E+05  +1.114E+05  +6.612E+03  +7.204E+05
 +5.67E+00  +1.33E+00  +2.738E+03  -1.256E+04  +3.384E+03  +2.501E+04  +1.026E+03  +1.027E+05  -4.709E+05  +1.269E+05  +9.378E+04  +3.848E+03  +5.735E+05
 +5.67E+00  +1.67E+00  +5.871E+03  -6.086E+03  +3.726E+03  +2.324E+04  +2.129E+02  +2.202E+05  -2.282E+05  +1.397E+05  +8.717E+04  +7.984E+02  +4.576E+05
 +5.67E+00  +1.93E+00  +8.243E+03  -1.928E+03  +3.879E+03  +1.912E+04  -3.596E+02  +3.091E+05  -7.229E+04  +1.455E+05  +7.171E+04  -1.348E+03  +4.320E+05
 +5.93E+00  +1.07E+00  +3.646E+02  -1.771E+04  +4.126E+03  +2.885E+04  +2.306E+03  +1.367E+04  -6.641E+05  +1.547E+05  +1.082E+05  +8.647E+03  +7.226E+05
 +5.93E+00  +1.33E+00  +2.660E+03  -1.212E+04  +4.645E+03  +2.424E+04  +1.241E+03  +9.974E+04  -4.546E+05  +1.742E+05  +9.089E+04  +4.655E+03  +5.942E+05
 +5.93E+00  +1.67E+00  +5.684E+03  -5.843E+03  +5.112E+03  +2.249E+04  +4.836E+01  +2.132E+05  -2.191E+05  +1.917E+05  +8.435E+04  +1.813E+02  +5.004E+05
 +5.93E+00  +1.93E+00  +7.969E+03  -1.813E+03  +5.319E+03  +1.846E+04  -8.010E+02  +2.988E+05  -6.798E+04  +1.994E+05  +6.923E+04  -3.004E+03  +4.833E+05

element # = 17     type =16-n plate
 XX         YY         MXX         MYY         MXY         QYZ         QZX         SIGXX       SIGYY       TAUXY       TAUXZ(Z=0)  TAUYZ(Z=0)   SIGV
 +6.07E+00  +1.07E+00  +3.568E+02  -1.732E+04  +4.703E+03  +2.827E+04  +2.674E+03  +1.338E+04  -6.494E+05  +1.764E+05  +1.060E+05  +1.003E+04  +7.238E+05
 +6.07E+00  +1.33E+00  +2.598E+03  -1.184E+04  +5.292E+03  +2.372E+04  +1.489E+03  +9.743E+04  -4.440E+05  +1.984E+05  +8.895E+04  +5.585E+03  +6.067E+05
 +6.07E+00  +1.67E+00  +5.547E+03  -5.688E+03  +5.820E+03  +2.199E+04  +1.759E+02  +2.080E+05  -2.133E+05  +2.182E+05  +8.246E+04  +6.595E+02  +5.254E+05
 +6.07E+00  +1.93E+00  +7.770E+03  -1.742E+03  +6.052E+03  +1.802E+04  -7.520E+02  +2.914E+05  -6.532E+04  +2.270E+05  +6.757E+04  -2.820E+03  +5.126E+05
 +6.33E+00  +1.07E+00  +3.221E+02  -1.645E+04  +5.746E+03  +2.696E+04  +3.077E+03  +1.208E+04  -6.170E+05  +2.155E+05  +1.011E+05  +1.154E+04  +7.264E+05
 +6.33E+00  +1.33E+00  +2.436E+03  -1.122E+04  +6.458E+03  +2.255E+04  +1.557E+03  +9.137E+04  -4.209E+05  +2.422E+05  +8.455E+04  +5.839E+03  +6.324E+05
 +6.33E+00  +1.67E+00  +5.206E+03  -5.354E+03  +7.094E+03  +2.085E+04  -1.461E+02  +1.952E+05  -2.008E+05  +2.660E+05  +7.818E+04  -5.480E+02  +5.744E+05
 +6.33E+00  +1.93E+00  +7.285E+03  -1.596E+03  +7.371E+03  +1.701E+04  -1.357E+03  +2.732E+05  -5.987E+04  +2.764E+05  +6.379E+04  -5.087E+03  +5.690E+05
 +6.67E+00  +1.07E+00  +2.469E+02  -1.510E+04  +6.985E+03  +2.483E+04  +3.703E+03  +9.257E+03  -5.662E+05  +2.620E+05  +9.311E+04  +1.389E+04  +7.292E+05
 +6.67E+00  +1.33E+00  +2.154E+03  -1.026E+04  +7.837E+03  +2.066E+04  +1.868E+03  +8.078E+04  -3.848E+05  +2.939E+05  +7.746E+04  +7.004E+03  +6.669E+05
 +6.67E+00  +1.67E+00  +4.633E+03  -4.844E+03  +8.591E+03  +1.901E+04  -1.688E+02  +1.737E+05  -1.817E+05  +3.222E+05  +7.129E+04  -6.328E+02  +6.372E+05
 +6.67E+00  +1.93E+00  +6.480E+03  -1.386E+03  +8.914E+03  +1.539E+04  -1.605E+03  +2.430E+05  -5.197E+04  +3.343E+05  +5.773E+04  -6.018E+03  +6.400E+05
 +6.93E+00  +1.07E+00  +1.620E+02  -1.391E+04  +7.832E+03  +2.289E+04  +3.858E+03  +6.076E+03  -5.216E+05  +2.937E+05  +8.584E+04  +1.447E+04  +7.308E+05
 +6.93E+00  +1.33E+00  +1.879E+03  -9.424E+03  +8.773E+03  +1.894E+04  +1.701E+03  +7.048E+04  -3.534E+05  +3.290E+05  +7.102E+04  +6.380E+03  +6.924E+05
 +6.93E+00  +1.67E+00  +4.093E+03  -4.411E+03  +9.599E+03  +1.734E+04  -7.104E+02  +1.535E+05  -1.654E+05  +3.600E+05  +6.504E+04  -2.664E+03  +6.819E+05
 +6.93E+00  +1.93E+00  +5.728E+03  -1.219E+03  +9.947E+03  +1.393E+04  -2.418E+03  +2.148E+05  -4.572E+04  +3.730E+05  +5.224E+04  -9.067E+03  +6.896E+05

element # = 18     type =16-n plate
 XX         YY         MXX         MYY         MXY         QYZ         QZX         SIGXX       SIGYY       TAUXY       TAUXZ(Z=0)  TAUYZ(Z=0)   SIGV
 +7.07E+00  +1.07E+00  +9.211E+01  -1.323E+04  +8.232E+03  +2.175E+04  +4.060E+03  +3.454E+03  -4.963E+05  +3.087E+05  +8.155E+04  +1.522E+04  +7.307E+05
 +7.07E+00  +1.33E+00  +1.692E+03  -8.953E+03  +9.212E+03  +1.792E+04  +1.811E+03  +6.347E+04  -3.358E+05  +3.454E+05  +6.721E+04  +6.792E+03  +7.043E+05
 +7.07E+00  +1.67E+00  +3.742E+03  -4.175E+03  +1.007E+04  +1.636E+04  -6.905E+02  +1.403E+05  -1.566E+05  +3.776E+05  +6.134E+04  -2.589E+03  +7.028E+05
 +7.07E+00  +1.93E+00  +5.248E+03  -1.137E+03  +1.043E+04  +1.306E+04  -2.456E+03  +1.968E+05  -4.265E+04  +3.910E+05  +4.899E+04  -9.208E+03  +7.124E+05
 +7.33E+00  +1.07E+00  -1.035E+02  -1.191E+04  +8.889E+03  +1.938E+04  +3.894E+03  -3.880E+03  -4.465E+05  +3.334E+05  +7.269E+04  +1.460E+04  +7.287E+05
 +7.33E+00  +1.33E+00  +1.243E+03  -8.039E+03  +9.928E+03  +1.583E+04  +1.317E+03  +4.662E+04  -3.015E+05  +3.723E+05  +5.935E+04  +4.938E+03  +7.231E+05
 +7.33E+00  +1.67E+00  +2.941E+03  -3.735E+03  +1.083E+04  +1.433E+04  -1.570E+03  +1.103E+05  -1.401E+05  +4.061E+05  +5.372E+04  -5.887E+03  +7.361E+05
 +7.33E+00  +1.93E+00  +4.167E+03  -1.008E+03  +1.120E+04  +1.128E+04  -3.612E+03  +1.563E+05  -3.781E+04  +4.198E+05  +4.228E+04  -1.354E+04  +7.487E+05
 +7.67E+00  +1.07E+00  -4.722E+02  -1.010E+04  +9.494E+03  +1.594E+04  +3.877E+03  -1.771E+04  -3.786E+05  +3.560E+05  +5.978E+04  +1.454E+04  +7.191E+05
 +7.67E+00  +1.33E+00  +4.916E+02  -6.814E+03  +1.058E+04  +1.277E+04  +1.072E+03  +1.843E+04  -2.555E+05  +3.966E+05  +4.790E+04  +4.021E+03  +7.363E+05
 +7.67E+00  +1.67E+00  +1.661E+03  -3.178E+03  +1.150E+04  +1.137E+04  -2.061E+03  +6.229E+04  -1.192E+05  +4.313E+05  +4.265E+04  -7.728E+03  +7.639E+05
 +7.67E+00  +1.93E+00  +2.472E+03  -8.899E+02  +1.187E+04  +8.672E+03  -4.273E+03  +9.271E+04  -3.337E+04  +4.450E+05  +3.252E+04  -1.602E+04  +7.790E+05
 +7.93E+00  +1.07E+00  -8.486E+02  -8.686E+03  +9.747E+03  +1.306E+04  +3.270E+03  -3.182E+04  -3.257E+05  +3.655E+05  +4.899E+04  +1.226E+04  +7.054E+05
 +7.93E+00  +1.33E+00  -2.162E+02  -5.879E+03  +1.084E+04  +1.022E+04  +1.844E+02  -8.109E+03  -2.205E+05  +4.063E+05  +3.833E+04  +6.915E+02  +7.363E+05
 +7.93E+00  +1.67E+00  +4.979E+02  -2.785E+03  +1.176E+04  +8.904E+03  -3.294E+03  +1.867E+04  -1.044E+05  +4.408E+05  +3.339E+04  -1.235E+04  +7.721E+05
 +7.93E+00  +1.93E+00  +9.525E+02  -8.500E+02  +1.211E+04  +6.489E+03  -5.762E+03  +3.572E+04  -3.187E+04  +4.541E+05  +2.433E+04  -2.161E+04  +7.886E+05

element # = 19     type =16-n plate
 XX         YY         MXX         MYY         MXY         QYZ         QZX         SIGXX       SIGYY       TAUXY       TAUXZ(Z=0)  TAUYZ(Z=0)   SIGV
 +8.07E+00  +1.07E+00  -1.109E+03  -7.945E+03  +9.781E+03  +1.142E+04  +3.188E+03  -4.160E+04  -2.979E+05  +3.668E+05  +4.283E+04  +1.196E+04  +6.941E+05
 +8.07E+00  +1.33E+00  -6.757E+02  -5.398E+03  +1.086E+04  +8.756E+03  +7.337E+01  -2.534E+04  -2.024E+05  +4.073E+05  +3.283E+04  +2.752E+02  +7.309E+05
 +8.07E+00  +1.67E+00  -2.325E+02  -2.600E+03  +1.177E+04  +7.485E+03  -3.435E+03  -8.719E+03  -9.749E+04  +4.414E+05  +2.807E+04  -1.288E+04  +7.702E+05
 +8.07E+00  +1.93E+00  +1.050E+01  -8.590E+02  +1.211E+04  +5.226E+03  -5.921E+03  +3.937E+02  -3.221E+04  +4.542E+05  +1.960E+04  -2.220E+04  +7.874E+05
 +8.33E+00  +1.07E+00  -1.757E+03  -6.600E+03  +9.678E+03  +8.233E+03  +2.093E+03  -6.588E+04  -2.475E+05  +3.629E+05  +3.087E+04  +7.848E+03  +6.667E+05
 +8.33E+00  +1.33E+00  -1.736E+03  -4.548E+03  +1.073E+04  +5.898E+03  -1.282E+03  -6.509E+04  -1.705E+05  +4.023E+05  +2.212E+04  -4.808E+03  +7.125E+05
 +8.33E+00  +1.67E+00  -1.855E+03  -2.316E+03  +1.160E+04  +4.715E+03  -5.142E+03  -6.957E+04  -8.686E+04  +4.349E+05  +1.768E+04  -1.928E+04  +7.575E+05
 +8.33E+00  +1.93E+00  -2.050E+03  -9.465E+02  +1.191E+04  +2.750E+03  -7.903E+03  -7.688E+04  -3.549E+04  +4.467E+05  +1.031E+04  -2.964E+04  +7.766E+05
 +8.67E+00  +1.07E+00  -2.833E+03  -4.976E+03  +9.076E+03  +3.869E+03  +1.184E+03  -1.062E+05  -1.866E+05  +3.404E+05  +1.451E+04  +4.439E+03  +6.114E+05
 +8.67E+00  +1.33E+00  -3.415E+03  -3.565E+03  +1.004E+04  +1.929E+03  -2.242E+03  -1.281E+05  -1.337E+05  +3.766E+05  +7.235E+03  -8.409E+03  +6.654E+05
 +8.67E+00  +1.67E+00  -4.356E+03  -2.072E+03  +1.083E+04  +8.448E+02  -6.220E+03  -1.633E+05  -7.771E+04  +4.061E+05  +3.168E+03  -2.332E+04  +7.175E+05
 +8.67E+00  +1.93E+00  -5.192E+03  -1.190E+03  +1.110E+04  -7.443E+02  -9.084E+03  -1.947E+05  -4.461E+04  +4.161E+05  -2.791E+03  -3.407E+04  +7.420E+05
 +8.93E+00  +1.07E+00  -3.844E+03  -3.879E+03  +8.234E+03  +2.214E+02  -3.523E+02  -1.441E+05  -1.455E+05  +3.088E+05  +8.302E+02  -1.321E+03  +5.541E+05
 +8.93E+00  +1.33E+00  -4.935E+03  -2.945E+03  +9.106E+03  -1.482E+03  -3.979E+03  -1.850E+05  -1.105E+05  +3.415E+05  -5.559E+03  -1.492E+04  +6.130E+05
 +8.93E+00  +1.67E+00  -6.570E+03  -2.002E+03  +9.799E+03  -2.529E+03  -8.301E+03  -2.464E+05  -7.509E+04  +3.675E+05  -9.484E+03  -3.113E+04  +6.730E+05
 +8.93E+00  +1.93E+00  -7.948E+03  -1.484E+03  +1.002E+04  -3.843E+03  -1.145E+04  -2.981E+05  -5.566E+04  +3.756E+05  -1.441E+04  -4.295E+04  +7.061E+05

element # = 20     type =16-n plate
 XX         YY         MXX         MYY         MXY         QYZ         QZX         SIGXX       SIGYY       TAUXY       TAUXZ(Z=0)  TAUYZ(Z=0)   SIGV
 +9.07E+00  +1.07E+00  -4.510E+03  -3.360E+03  +7.777E+03  -9.269E+02  -9.072E+02  -1.691E+05  -1.260E+05  +2.917E+05  -3.476E+03  -3.402E+03  +5.276E+05
 +9.07E+00  +1.33E+00  -5.889E+03  -2.674E+03  +8.598E+03  -2.459E+03  -4.400E+03  -2.208E+05  -1.003E+05  +3.224E+05  -9.220E+03  -1.650E+04  +5.904E+05
 +9.07E+00  +1.67E+00  -7.928E+03  -2.021E+03  +9.240E+03  -3.448E+03  -8.610E+03  -2.973E+05  -7.577E+04  +3.465E+05  -1.293E+04  -3.229E+04  +6.571E+05
 +9.07E+00  +1.93E+00  -9.622E+03  -1.696E+03  +9.430E+03  -4.618E+03  -1.171E+04  -3.608E+05  -6.359E+04  +3.536E+05  -1.732E+04  -4.390E+04  +6.974E+05
 +9.33E+00  +1.07E+00  -5.864E+03  -2.567E+03  +6.138E+03  -4.848E+03  -2.286E+03  -2.199E+05  -9.626E+04  +2.302E+05  -1.818E+04  -8.573E+03  +4.420E+05
 +9.33E+00  +1.33E+00  -7.875E+03  -2.322E+03  +6.784E+03  -6.301E+03  -6.191E+03  -2.953E+05  -8.706E+04  +2.544E+05  -2.363E+04  -2.322E+04  +5.131E+05
 +9.33E+00  +1.67E+00  -1.080E+04  -2.185E+03  +7.271E+03  -7.321E+03  -1.109E+04  -4.048E+05  -8.192E+04  +2.727E+05  -2.746E+04  -4.157E+04  +6.004E+05
 +9.33E+00  +1.93E+00  -1.318E+04  -2.207E+03  +7.394E+03  -8.221E+03  -1.468E+04  -4.944E+05  -8.277E+04  +2.773E+05  -3.083E+04  -5.506E+04  +6.641E+05
 +9.67E+00  +1.07E+00  -7.777E+03  -1.914E+03  +3.830E+03  -9.420E+03  -3.833E+03  -2.916E+05  -7.177E+04  +1.436E+05  -3.532E+04  -1.437E+04  +3.621E+05
 +9.67E+00  +1.33E+00  -1.078E+04  -2.176E+03  +4.227E+03  -1.080E+04  -7.714E+03  -4.043E+05  -8.161E+04  +1.585E+05  -4.049E+04  -2.893E+04  +4.610E+05
 +9.67E+00  +1.67E+00  -1.508E+04  -2.638E+03  +4.506E+03  -1.181E+04  -1.270E+04  -5.653E+05  -9.894E+04  +1.690E+05  -4.427E+04  -4.764E+04  +5.992E+05
 +9.67E+00  +1.93E+00  -1.852E+04  -3.062E+03  +4.554E+03  -1.231E+04  -1.638E+04  -6.943E+05  -1.148E+05  +1.708E+05  -4.617E+04  -6.143E+04  +7.093E+05
 +9.93E+00  +1.07E+00  -9.349E+03  -1.665E+03  +1.868E+03  -3.817E+03  -5.312E+03  -3.506E+05  -6.242E+04  +7.005E+04  -1.431E+04  -1.992E+04  +3.459E+05
 +9.93E+00  +1.33E+00  -1.324E+04  -2.271E+03  +2.055E+03  -4.284E+03  -9.804E+03  -4.967E+05  -8.516E+04  +7.708E+04  -1.607E+04  -3.676E+04  +4.790E+05
 +9.93E+00  +1.67E+00  -1.876E+04  -3.145E+03  +2.175E+03  -4.627E+03  -1.563E+04  -7.036E+05  -1.179E+05  +8.155E+04  -1.735E+04  -5.863E+04  +6.678E+05
 +9.93E+00  +1.93E+00  -2.313E+04  -3.846E+03  +2.185E+03  -4.748E+03  -1.986E+04  -8.672E+05  -1.442E+05  +8.195E+04  -1.780E+04  -7.446E+04  +8.173E+05

element # = 21     type =16-n plate
 XX         YY         MXX         MYY         MXY         QYZ         QZX         SIGXX       SIGYY       TAUXY       TAUXZ(Z=0)  TAUYZ(Z=0)   SIGV
 +6.94E-02  +2.07E+00  -2.545E+04  -4.224E+03  -2.173E+03  -4.754E+03  +2.196E+04  -9.543E+05  -1.584E+05  -8.149E+04  -1.783E+04  +8.235E+04  +8.970E+05
 +6.94E-02  +2.33E+00  -2.976E+04  -4.929E+03  -2.121E+03  -4.708E+03  +2.564E+04  -1.116E+06  -1.848E+05  -7.952E+04  -1.765E+04  +9.614E+04  +1.045E+06
 +6.94E-02  +2.67E+00  -3.520E+04  -5.822E+03  -2.015E+03  -4.539E+03  +2.991E+04  -1.320E+06  -2.183E+05  -7.554E+04  -1.702E+04  +1.122E+05  +1.232E+06
 +6.94E-02  +2.93E+00  -3.916E+04  -6.477E+03  -1.911E+03  -4.356E+03  +3.279E+04  -1.469E+06  -2.429E+05  -7.168E+04  -1.633E+04  +1.230E+05  +1.369E+06
 +3.30E-01  +2.07E+00  -2.037E+04  -3.315E+03  -4.548E+03  -1.236E+04  +1.824E+04  -7.638E+05  -1.243E+05  -1.705E+05  -4.636E+04  +6.842E+04  +7.689E+05
 +3.30E-01  +2.33E+00  -2.384E+04  -3.811E+03  -4.464E+03  -1.238E+04  +2.153E+04  -8.938E+05  -1.429E+05  -1.674E+05  -4.643E+04  +8.074E+04  +8.807E+05
 +3.30E-01  +2.67E+00  -2.827E+04  -4.471E+03  -4.275E+03  -1.204E+04  +2.543E+04  -1.060E+06  -1.677E+05  -1.603E+05  -4.514E+04  +9.535E+04  +1.025E+06
 +3.30E-01  +2.93E+00  -3.154E+04  -4.978E+03  -4.078E+03  -1.166E+04  +2.810E+04  -1.183E+06  -1.867E+05  -1.529E+05  -4.372E+04  +1.054E+05  +1.133E+06
 +6.70E-01  +2.07E+00  -1.449E+04  -2.276E+03  -7.408E+03  -8.347E+03  +1.652E+04  -5.434E+05  -8.534E+04  -2.778E+05  -3.130E+04  +6.194E+04  +6.983E+05
 +6.70E-01  +2.33E+00  -1.697E+04  -2.471E+03  -7.318E+03  -8.764E+03  +1.974E+04  -6.364E+05  -9.268E+04  -2.744E+05  -3.287E+04  +7.402E+04  +7.619E+05
 +6.70E-01  +2.67E+00  -2.020E+04  -2.796E+03  -7.064E+03  -8.783E+03  +2.357E+04  -7.575E+05  -1.049E+05  -2.649E+05  -3.294E+04  +8.840E+04  +8.461E+05
 +6.70E-01  +2.93E+00  -2.263E+04  -3.091E+03  -6.778E+03  -8.808E+03  +2.621E+04  -8.487E+05  -1.159E+05  -2.542E+05  -3.303E+04  +9.830E+04  +9.106E+05
 +9.31E-01  +2.07E+00  -1.056E+04  -1.605E+03  -9.465E+03  -4.772E+03  +1.330E+04  -3.961E+05  -6.018E+04  -3.549E+05  -1.790E+04  +4.989E+04  +7.174E+05
 +9.31E-01  +2.33E+00  -1.237E+04  -1.542E+03  -9.387E+03  -5.486E+03  +1.612E+04  -4.640E+05  -5.781E+04  -3.520E+05  -2.057E+04  +6.044E+04  +7.507E+05
 +9.31E-01  +2.67E+00  -1.477E+04  -1.577E+03  -9.107E+03  -5.750E+03  +1.953E+04  -5.539E+05  -5.914E+04  -3.415E+05  -2.156E+04  +7.325E+04  +7.921E+05
 +9.31E-01  +2.93E+00  -1.660E+04  -1.689E+03  -8.772E+03  -6.100E+03  +2.193E+04  -6.226E+05  -6.335E+04  -3.290E+05  -2.288E+04  +8.223E+04  +8.227E+05

element # = 22     type =16-n plate
 XX         YY         MXX         MYY         MXY         QYZ         QZX         SIGXX       SIGYY       TAUXY       TAUXZ(Z=0)  TAUYZ(Z=0)   SIGV
 +1.07E+00  +2.07E+00  -8.721E+03  -1.304E+03  -1.006E+04  -4.001E+03  +1.308E+04  -3.270E+05  -4.891E+04  -3.774E+05  -1.500E+04  +4.903E+04  +7.215E+05
 +1.07E+00  +2.33E+00  -1.022E+04  -1.097E+03  -1.000E+04  -4.837E+03  +1.592E+04  -3.832E+05  -4.113E+04  -3.750E+05  -1.814E+04  +5.972E+04  +7.448E+05
 +1.07E+00  +2.67E+00  -1.222E+04  -9.708E+02  -9.727E+03  -5.158E+03  +1.937E+04  -4.584E+05  -3.641E+04  -3.648E+05  -1.934E+04  +7.264E+04  +7.706E+05
 +1.07E+00  +2.93E+00  -1.377E+04  -9.812E+02  -9.389E+03  -5.622E+03  +2.178E+04  -5.164E+05  -3.679E+04  -3.521E+05  -2.108E+04  +8.167E+04  +7.879E+05
 +1.33E+00  +2.07E+00  -5.676E+03  -8.399E+02  -1.116E+04  -9.145E+02  +1.055E+04  -2.129E+05  -3.150E+04  -4.186E+05  -3.430E+03  +3.957E+04  +7.519E+05
 +1.33E+00  +2.33E+00  -6.641E+03  -3.587E+02  -1.112E+04  -2.015E+03  +1.312E+04  -2.490E+05  -1.345E+04  -4.172E+05  -7.557E+03  +4.922E+04  +7.622E+05
 +1.33E+00  +2.67E+00  -7.966E+03  +7.369E+01  -1.086E+04  -2.511E+03  +1.624E+04  -2.987E+05  +2.763E+03  -4.074E+05  -9.416E+03  +6.090E+04  +7.667E+05
 +1.33E+00  +2.93E+00  -9.015E+03  +2.581E+02  -1.052E+04  -3.257E+03  +1.843E+04  -3.381E+05  +9.679E+03  -3.944E+05  -1.221E+04  +6.911E+04  +7.644E+05
 +1.67E+00  +2.07E+00  -2.194E+03  -3.704E+02  -1.200E+04  +2.573E+03  +9.317E+03  -8.228E+04  -1.389E+04  -4.501E+05  +9.647E+03  +3.494E+04  +7.833E+05
 +1.67E+00  +2.33E+00  -2.528E+03  +4.776E+02  -1.200E+04  +1.144E+03  +1.179E+04  -9.478E+04  +1.791E+04  -4.499E+05  +4.289E+03  +4.421E+04  +7.863E+05
 +1.67E+00  +2.67E+00  -3.046E+03  +1.322E+03  -1.176E+04  +4.629E+02  +1.479E+04  -1.142E+05  +4.956E+04  -4.411E+05  +1.736E+03  +5.545E+04  +7.778E+05
 +1.67E+00  +2.93E+00  -3.500E+03  +1.769E+03  -1.143E+04  -6.165E+02  +1.690E+04  -1.312E+05  +6.633E+04  -4.285E+05  -2.312E+03  +6.336E+04  +7.624E+05
 +1.93E+00  +2.07E+00  +9.928E+01  -1.106E+02  -1.222E+04  +5.048E+03  +7.189E+03  +3.723E+03  -4.147E+03  -4.581E+05  +1.893E+04  +2.696E+04  +7.935E+05
 +1.93E+00  +2.33E+00  +1.992E+02  +1.017E+03  -1.224E+04  +3.378E+03  +9.396E+03  +7.471E+03  +3.815E+04  -4.588E+05  +1.267E+04  +3.523E+04  +7.955E+05
 +1.93E+00  +2.67E+00  +2.375E+02  +2.176E+03  -1.203E+04  +2.574E+03  +1.207E+04  +8.908E+03  +8.161E+04  -4.511E+05  +9.651E+03  +4.527E+04  +7.852E+05
 +1.93E+00  +2.93E+00  +1.980E+02  +2.825E+03  -1.171E+04  +1.257E+03  +1.396E+04  +7.425E+03  +1.060E+05  -4.392E+05  +4.714E+03  +5.234E+04  +7.676E+05

element # = 23     type =16-n plate
 XX         YY         MXX         MYY         MXY         QYZ         QZX         SIGXX       SIGYY       TAUXY       TAUXZ(Z=0)  TAUYZ(Z=0)   SIGV
 +2.07E+00  +2.07E+00  +1.154E+03  -1.164E+01  -1.222E+04  +6.310E+03  +7.021E+03  +4.326E+04  -4.365E+02  -4.582E+05  +2.366E+04  +2.633E+04  +7.948E+05
 +2.07E+00  +2.33E+00  +1.463E+03  +1.262E+03  -1.225E+04  +4.517E+03  +9.213E+03  +5.485E+04  +4.733E+04  -4.594E+05  +1.694E+04  +3.455E+04  +7.973E+05
 +2.07E+00  +2.67E+00  +1.770E+03  +2.585E+03  -1.206E+04  +3.651E+03  +1.187E+04  +6.639E+04  +9.694E+04  -4.522E+05  +1.369E+04  +4.452E+04  +7.879E+05
 +2.07E+00  +2.93E+00  +1.932E+03  +3.340E+03  -1.175E+04  +2.214E+03  +1.375E+04  +7.245E+04  +1.252E+05  -4.407E+05  +8.302E+03  +5.155E+04  +7.711E+05
 +2.33E+00  +2.07E+00  +2.863E+03  +1.117E+02  -1.198E+04  +8.496E+03  +5.399E+03  +1.074E+05  +4.190E+03  -4.494E+05  +3.186E+04  +2.024E+04  +7.855E+05
 +2.33E+00  +2.33E+00  +3.527E+03  +1.651E+03  -1.204E+04  +6.480E+03  +7.350E+03  +1.322E+05  +6.191E+04  -4.513E+05  +2.430E+04  +2.756E+04  +7.901E+05
 +2.33E+00  +2.67E+00  +4.292E+03  +3.273E+03  -1.188E+04  +5.509E+03  +9.714E+03  +1.609E+05  +1.227E+05  -4.453E+05  +2.066E+04  +3.643E+04  +7.850E+05
 +2.33E+00  +2.93E+00  +4.796E+03  +4.219E+03  -1.159E+04  +3.860E+03  +1.138E+04  +1.799E+05  +1.582E+05  -4.348E+05  +1.448E+04  +4.267E+04  +7.720E+05
 +2.67E+00  +2.07E+00  +4.780E+03  +1.954E+02  -1.132E+04  +1.110E+04  +4.652E+03  +1.792E+05  +7.328E+03  -4.245E+05  +4.164E+04  +1.745E+04  +7.559E+05
 +2.67E+00  +2.33E+00  +5.857E+03  +2.063E+03  -1.139E+04  +8.818E+03  +6.457E+03  +2.196E+05  +7.737E+04  -4.271E+05  +3.307E+04  +2.421E+04  +7.646E+05
 +2.67E+00  +2.67E+00  +7.158E+03  +4.056E+03  -1.127E+04  +7.727E+03  +8.648E+03  +2.684E+05  +1.521E+05  -4.225E+05  +2.898E+04  +3.243E+04  +7.680E+05
 +2.67E+00  +2.93E+00  +8.065E+03  +5.240E+03  -1.102E+04  +5.823E+03  +1.019E+04  +3.024E+05  +1.965E+05  -4.133E+05  +2.184E+04  +3.823E+04  +7.636E+05
 +2.93E+00  +2.07E+00  +6.009E+03  +2.097E+02  -1.055E+04  +1.290E+04  +3.353E+03  +2.253E+05  +7.863E+03  -3.956E+05  +4.837E+04  +1.257E+04  +7.201E+05
 +2.93E+00  +2.33E+00  +7.365E+03  +2.311E+03  -1.063E+04  +1.042E+04  +4.906E+03  +2.762E+05  +8.666E+04  -3.986E+05  +3.909E+04  +1.840E+04  +7.325E+05
 +2.93E+00  +2.67E+00  +9.030E+03  +4.567E+03  -1.053E+04  +9.253E+03  +6.786E+03  +3.386E+05  +1.713E+05  -3.950E+05  +3.470E+04  +2.545E+04  +7.443E+05
 +2.93E+00  +2.93E+00  +1.021E+04  +5.922E+03  -1.032E+04  +7.174E+03  +8.111E+03  +3.829E+05  +2.221E+05  -3.869E+05  +2.690E+04  +3.042E+04  +7.483E+05

element # = 24     type =16-n plate
 XX         YY         MXX         MYY         MXY         QYZ         QZX         SIGXX       SIGYY       TAUXY       TAUXZ(Z=0)  TAUYZ(Z=0)   SIGV
 +3.07E+00  +2.07E+00  +6.559E+03  +1.990E+02  -1.007E+04  +1.377E+04  +3.288E+03  +2.460E+05  +7.463E+03  -3.775E+05  +5.163E+04  +1.233E+04  +6.974E+05
 +3.07E+00  +2.33E+00  +8.046E+03  +2.416E+03  -1.015E+04  +1.120E+04  +4.796E+03  +3.017E+05  +9.061E+04  -3.807E+05  +4.201E+04  +1.799E+04  +7.118E+05
 +3.07E+00  +2.67E+00  +9.882E+03  +4.803E+03  -1.007E+04  +9.992E+03  +6.627E+03  +3.706E+05  +1.801E+05  -3.775E+05  +3.747E+04  +2.485E+04  +7.284E+05
 +3.07E+00  +2.93E+00  +1.119E+04  +6.242E+03  -9.867E+03  +7.827E+03  +7.922E+03  +4.197E+05  +2.341E+05  -3.700E+05  +2.935E+04  +2.971E+04  +7.372E+05
 +3.33E+00  +2.07E+00  +7.424E+03  +1.551E+02  -9.027E+03  +1.524E+04  +2.335E+03  +2.784E+05  +5.815E+03  -3.385E+05  +5.713E+04  +8.755E+03  +6.479E+05
 +3.33E+00  +2.33E+00  +9.124E+03  +2.572E+03  -9.112E+03  +1.251E+04  +3.595E+03  +3.421E+05  +9.644E+04  -3.417E+05  +4.692E+04  +1.348E+04  +6.661E+05
 +3.33E+00  +2.67E+00  +1.124E+04  +5.184E+03  -9.049E+03  +1.124E+04  +5.119E+03  +4.214E+05  +1.944E+05  -3.393E+05  +4.215E+04  +1.920E+04  +6.920E+05
 +3.33E+00  +2.93E+00  +1.276E+04  +6.769E+03  -8.878E+03  +8.927E+03  +6.194E+03  +4.785E+05  +2.538E+05  -3.329E+05  +3.348E+04  +2.323E+04  +7.103E+05
 +3.67E+00  +2.07E+00  +8.354E+03  +8.256E+01  -7.470E+03  +1.686E+04  +1.975E+03  +3.133E+05  +3.096E+03  -2.801E+05  +6.322E+04  +7.405E+03  +5.767E+05
 +3.67E+00  +2.33E+00  +1.029E+04  +2.724E+03  -7.550E+03  +1.396E+04  +3.046E+03  +3.858E+05  +1.022E+05  -2.831E+05  +5.235E+04  +1.142E+04  +6.003E+05
 +3.67E+00  +2.67E+00  +1.271E+04  +5.591E+03  -7.509E+03  +1.262E+04  +4.351E+03  +4.767E+05  +2.097E+05  -2.816E+05  +4.733E+04  +1.631E+04  +6.396E+05
 +3.67E+00  +2.93E+00  +1.447E+04  +7.340E+03  -7.376E+03  +1.015E+04  +5.275E+03  +5.426E+05  +2.753E+05  -2.766E+05  +3.805E+04  +1.978E+04  +6.711E+05
 +3.93E+00  +2.07E+00  +8.917E+03  +2.440E+01  -6.136E+03  +1.787E+04  +1.224E+03  +3.344E+05  +9.148E+02  -2.301E+05  +6.702E+04  +4.591E+03  +5.200E+05
 +3.93E+00  +2.33E+00  +1.100E+04  +2.809E+03  -6.207E+03  +1.487E+04  +2.039E+03  +4.125E+05  +1.053E+05  -2.327E+05  +5.574E+04  +7.645E+03  +5.480E+05
 +3.93E+00  +2.67E+00  +1.362E+04  +5.837E+03  -6.179E+03  +1.348E+04  +3.025E+03  +5.106E+05  +2.189E+05  -2.317E+05  +5.057E+04  +1.134E+04  +5.983E+05
 +3.93E+00  +2.93E+00  +1.552E+04  +7.690E+03  -6.073E+03  +1.091E+04  +3.720E+03  +5.820E+05  +2.884E+05  -2.277E+05  +4.091E+04  +1.395E+04  +6.401E+05

element # = 25     type =16-n plate
 XX         YY         MXX         MYY         MXY         QYZ         QZX         SIGXX       SIGYY       TAUXY       TAUXZ(Z=0)  TAUYZ(Z=0)   SIGV
 +4.07E+00  +2.07E+00  +9.149E+03  -7.604E+00  -5.393E+03  +1.832E+04  +1.235E+03  +3.431E+05  -2.852E+02  -2.023E+05  +6.869E+04  +4.632E+03  +4.904E+05
 +4.07E+00  +2.33E+00  +1.129E+04  +2.840E+03  -5.457E+03  +1.526E+04  +1.989E+03  +4.235E+05  +1.065E+05  -2.046E+05  +5.724E+04  +7.457E+03  +5.208E+05
 +4.07E+00  +2.67E+00  +1.399E+04  +5.941E+03  -5.435E+03  +1.386E+04  +2.907E+03  +5.248E+05  +2.228E+05  -2.038E+05  +5.199E+04  +1.090E+04  +5.768E+05
 +4.07E+00  +2.93E+00  +1.596E+04  +7.841E+03  -5.344E+03  +1.124E+04  +3.558E+03  +5.985E+05  +2.940E+05  -2.004E+05  +4.216E+04  +1.334E+04  +6.238E+05
 +4.33E+00  +2.07E+00  +9.470E+03  -6.376E+01  -3.935E+03  +1.898E+04  +6.502E+02  +3.551E+05  -2.391E+03  -1.476E+05  +7.117E+04  +2.438E+03  +4.385E+05
 +4.33E+00  +2.33E+00  +1.170E+04  +2.880E+03  -3.983E+03  +1.585E+04  +1.150E+03  +4.389E+05  +1.080E+05  -1.494E+05  +5.945E+04  +4.311E+03  +4.731E+05
 +4.33E+00  +2.67E+00  +1.452E+04  +6.089E+03  -3.969E+03  +1.443E+04  +1.752E+03  +5.445E+05  +2.283E+05  -1.488E+05  +5.410E+04  +6.570E+03  +5.392E+05
 +4.33E+00  +2.93E+00  +1.658E+04  +8.059E+03  -3.904E+03  +1.174E+04  +2.175E+03  +6.216E+05  +3.022E+05  -1.464E+05  +4.402E+04  +8.156E+03  +5.952E+05
 +4.67E+00  +2.07E+00  +9.745E+03  -1.107E+02  -1.964E+03  +1.953E+04  +4.979E+02  +3.655E+05  -4.150E+03  -7.365E+04  +7.324E+04  +1.867E+03  +3.891E+05
 +4.67E+00  +2.33E+00  +1.205E+04  +2.913E+03  -1.989E+03  +1.634E+04  +7.880E+02  +4.521E+05  +1.092E+05  -7.459E+04  +6.129E+04  +2.955E+03  +4.285E+05
 +4.67E+00  +2.67E+00  +1.497E+04  +6.212E+03  -1.983E+03  +1.490E+04  +1.145E+03  +5.615E+05  +2.329E+05  -7.437E+04  +5.586E+04  +4.292E+03  +5.053E+05
 +4.67E+00  +2.93E+00  +1.711E+04  +8.241E+03  -1.952E+03  +1.215E+04  +1.400E+03  +6.415E+05  +3.090E+05  -7.319E+04  +4.557E+04  +5.250E+03  +5.699E+05
 +4.93E+00  +2.07E+00  +9.848E+03  -1.228E+02  -4.129E+02  +1.971E+04  -1.946E+01  +3.693E+05  -4.605E+03  -1.548E+04  +7.390E+04  -7.297E+01  +3.726E+05
 +4.93E+00  +2.33E+00  +1.218E+04  +2.926E+03  -4.181E+02  +1.650E+04  +1.386E+01  +4.569E+05  +1.097E+05  -1.568E+04  +6.189E+04  +5.199E+01  +4.140E+05
 +4.93E+00  +2.67E+00  +1.514E+04  +6.254E+03  -4.169E+02  +1.505E+04  +5.127E+01  +5.677E+05  +2.345E+05  -1.563E+04  +5.644E+04  +1.923E+02  +4.949E+05
 +4.93E+00  +2.93E+00  +1.730E+04  +8.302E+03  -4.103E+02  +1.229E+04  +7.551E+01  +6.488E+05  +3.113E+05  -1.539E+04  +4.608E+04  +2.832E+02  +5.627E+05

element # = 26     type =16-n plate
 XX         YY         MXX         MYY         MXY         QYZ         QZX         SIGXX       SIGYY       TAUXY       TAUXZ(Z=0)  TAUYZ(Z=0)   SIGV
 +5.07E+00  +2.07E+00  +9.848E+03  -1.228E+02  +4.129E+02  +1.971E+04  +1.946E+01  +3.693E+05  -4.605E+03  +1.548E+04  +7.390E+04  +7.297E+01  +3.726E+05
 +5.07E+00  +2.33E+00  +1.218E+04  +2.926E+03  +4.181E+02  +1.650E+04  -1.386E+01  +4.569E+05  +1.097E+05  +1.568E+04  +6.189E+04  -5.199E+01  +4.140E+05
 +5.07E+00  +2.67E+00  +1.514E+04  +6.254E+03  +4.169E+02  +1.505E+04  -5.127E+01  +5.677E+05  +2.345E+05  +1.563E+04  +5.644E+04  -1.923E+02  +4.949E+05
 +5.07E+00  +2.93E+00  +1.730E+04  +8.302E+03  +4.103E+02  +1.229E+04  -7.551E+01  +6.488E+05  +3.113E+05  +1.539E+04  +4.608E+04  -2.832E+02  +5.627E+05
 +5.33E+00  +2.07E+00  +9.745E+03  -1.107E+02  +1.964E+03  +1.953E+04  -4.979E+02  +3.655E+05  -4.150E+03  +7.365E+04  +7.324E+04  -1.867E+03  +3.891E+05
 +5.33E+00  +2.33E+00  +1.205E+04  +2.913E+03  +1.989E+03  +1.634E+04  -7.880E+02  +4.521E+05  +1.092E+05  +7.459E+04  +6.129E+04  -2.955E+03  +4.285E+05
 +5.33E+00  +2.67E+00  +1.497E+04  +6.212E+03  +1.983E+03  +1.490E+04  -1.145E+03  +5.615E+05  +2.329E+05  +7.437E+04  +5.586E+04  -4.292E+03  +5.053E+05
 +5.33E+00  +2.93E+00  +1.711E+04  +8.241E+03  +1.952E+03  +1.215E+04  -1.400E+03  +6.415E+05  +3.090E+05  +7.319E+04  +4.557E+04  -5.250E+03  +5.699E+05
 +5.67E+00  +2.07E+00  +9.470E+03  -6.376E+01  +3.935E+03  +1.898E+04  -6.502E+02  +3.551E+05  -2.391E+03  +1.476E+05  +7.117E+04  -2.438E+03  +4.385E+05
 +5.67E+00  +2.33E+00  +1.170E+04  +2.880E+03  +3.983E+03  +1.585E+04  -1.150E+03  +4.389E+05  +1.080E+05  +1.494E+05  +5.945E+04  -4.311E+03  +4.731E+05
 +5.67E+00  +2.67E+00  +1.452E+04  +6.089E+03  +3.969E+03  +1.443E+04  -1.752E+03  +5.445E+05  +2.283E+05  +1.488E+05  +5.410E+04  -6.570E+03  +5.392E+05
 +5.67E+00  +2.93E+00  +1.658E+04  +8.059E+03  +3.904E+03  +1.174E+04  -2.175E+03  +6.216E+05  +3.022E+05  +1.464E+05  +4.402E+04  -8.156E+03  +5.952E+05
 +5.93E+00  +2.07E+00  +9.149E+03  -7.604E+00  +5.393E+03  +1.832E+04  -1.235E+03  +3.431E+05  -2.852E+02  +2.023E+05  +6.869E+04  -4.632E+03  +4.904E+05
 +5.93E+00  +2.33E+00  +1.129E+04  +2.840E+03  +5.457E+03  +1.526E+04  -1.989E+03  +4.235E+05  +1.065E+05  +2.046E+05  +5.724E+04  -7.457E+03  +5.208E+05
 +5.93E+00  +2.67E+00  +1.399E+04  +5.941E+03  +5.435E+03  +1.386E+04  -2.907E+03  +5.248E+05  +2.228E+05  +2.038E+05  +5.199E+04  -1.090E+04  +5.768E+05
 +5.93E+00  +2.93E+00  +1.596E+04  +7.841E+03  +5.344E+03  +1.124E+04  -3.558E+03  +5.985E+05  +2.940E+05  +2.004E+05  +4.216E+04  -1.334E+04  +6.238E+05

element # = 27     type =16-n plate
 XX         YY         MXX         MYY         MXY         QYZ         QZX         SIGXX       SIGYY       TAUXY       TAUXZ(Z=0)  TAUYZ(Z=0)   SIGV
 +6.07E+00  +2.07E+00  +8.917E+03  +2.440E+01  +6.136E+03  +1.787E+04  -1.224E+03  +3.344E+05  +9.148E+02  +2.301E+05  +6.702E+04  -4.591E+03  +5.200E+05
 +6.07E+00  +2.33E+00  +1.100E+04  +2.809E+03  +6.207E+03  +1.487E+04  -2.039E+03  +4.125E+05  +1.053E+05  +2.327E+05  +5.574E+04  -7.645E+03  +5.480E+05
 +6.07E+00  +2.67E+00  +1.362E+04  +5.837E+03  +6.179E+03  +1.348E+04  -3.025E+03  +5.106E+05  +2.189E+05  +2.317E+05  +5.057E+04  -1.134E+04  +5.983E+05
 +6.07E+00  +2.93E+00  +1.552E+04  +7.690E+03  +6.073E+03  +1.091E+04  -3.720E+03  +5.820E+05  +2.884E+05  +2.277E+05  +4.091E+04  -1.395E+04  +6.401E+05
 +6.33E+00  +2.07E+00  +8.354E+03  +8.256E+01  +7.470E+03  +1.686E+04  -1.975E+03  +3.133E+05  +3.096E+03  +2.801E+05  +6.322E+04  -7.405E+03  +5.767E+05
 +6.33E+00  +2.33E+00  +1.029E+04  +2.724E+03  +7.550E+03  +1.396E+04  -3.046E+03  +3.858E+05  +1.022E+05  +2.831E+05  +5.235E+04  -1.142E+04  +6.003E+05
 +6.33E+00  +2.67E+00  +1.271E+04  +5.591E+03  +7.509E+03  +1.262E+04  -4.351E+03  +4.767E+05  +2.097E+05  +2.816E+05  +4.733E+04  -1.631E+04  +6.396E+05
 +6.33E+00  +2.93E+00  +1.447E+04  +7.340E+03  +7.376E+03  +1.015E+04  -5.275E+03  +5.426E+05  +2.753E+05  +2.766E+05  +3.805E+04  -1.978E+04  +6.711E+05
 +6.67E+00  +2.07E+00  +7.424E+03  +1.551E+02  +9.027E+03  +1.524E+04  -2.335E+03  +2.784E+05  +5.815E+03  +3.385E+05  +5.713E+04  -8.755E+03  +6.479E+05
 +6.67E+00  +2.33E+00  +9.124E+03  +2.572E+03  +9.112E+03  +1.251E+04  -3.595E+03  +3.421E+05  +9.644E+04  +3.417E+05  +4.692E+04  -1.348E+04  +6.661E+05
 +6.67E+00  +2.67E+00  +1.124E+04  +5.184E+03  +9.049E+03  +1.124E+04  -5.119E+03  +4.214E+05  +1.944E+05  +3.393E+05  +4.215E+04  -1.920E+04  +6.920E+05
 +6.67E+00  +2.93E+00  +1.276E+04  +6.769E+03  +8.878E+03  +8.927E+03  -6.194E+03  +4.785E+05  +2.538E+05  +3.329E+05  +3.348E+04  -2.323E+04  +7.103E+05
 +6.93E+00  +2.07E+00  +6.559E+03  +1.990E+02  +1.007E+04  +1.377E+04  -3.288E+03  +2.460E+05  +7.463E+03  +3.775E+05  +5.163E+04  -1.233E+04  +6.974E+05
 +6.93E+00  +2.33E+00  +8.046E+03  +2.416E+03  +1.015E+04  +1.120E+04  -4.796E+03  +3.017E+05  +9.061E+04  +3.807E+05  +4.201E+04  -1.799E+04  +7.118E+05
 +6.93E+00  +2.67E+00  +9.882E+03  +4.803E+03  +1.007E+04  +9.992E+03  -6.627E+03  +3.706E+05  +1.801E+05  +3.775E+05  +3.747E+04  -2.485E+04  +7.284E+05
 +6.93E+00  +2.93E+00  +1.119E+04  +6.242E+03  +9.867E+03  +7.827E+03  -7.922E+03  +4.197E+05  +2.341E+05  +3.700E+05  +2.935E+04  -2.971E+04  +7.372E+05

element # = 28     type =16-n plate
 XX         YY         MXX         MYY         MXY         QYZ         QZX         SIGXX       SIGYY       TAUXY       TAUXZ(Z=0)  TAUYZ(Z=0)   SIGV
 +7.07E+00  +2.07E+00  +6.009E+03  +2.097E+02  +1.055E+04  +1.290E+04  -3.353E+03  +2.253E+05  +7.863E+03  +3.956E+05  +4.837E+04  -1.257E+04  +7.201E+05
 +7.07E+00  +2.33E+00  +7.365E+03  +2.311E+03  +1.063E+04  +1.042E+04  -4.906E+03  +2.762E+05  +8.666E+04  +3.986E+05  +3.909E+04  -1.840E+04  +7.325E+05
 +7.07E+00  +2.67E+00  +9.030E+03  +4.567E+03  +1.053E+04  +9.253E+03  -6.786E+03  +3.386E+05  +1.713E+05  +3.950E+05  +3.470E+04  -2.545E+04  +7.443E+05
 +7.07E+00  +2.93E+00  +1.021E+04  +5.922E+03  +1.032E+04  +7.174E+03  -8.111E+03  +3.829E+05  +2.221E+05  +3.869E+05  +2.690E+04  -3.042E+04  +7.483E+05
 +7.33E+00  +2.07E+00  +4.780E+03  +1.954E+02  +1.132E+04  +1.110E+04  -4.652E+03  +1.792E+05  +7.328E+03  +4.245E+05  +4.164E+04  -1.745E+04  +7.559E+05
 +7.33E+00  +2.33E+00  +5.857E+03  +2.063E+03  +1.139E+04  +8.818E+03  -6.457E+03  +2.196E+05  +7.737E+04  +4.271E+05  +3.307E+04  -2.421E+04  +7.646E+05
 +7.33E+00  +2.67E+00  +7.158E+03  +4.056E+03  +1.127E+04  +7.727E+03  -8.648E+03  +2.684E+05  +1.521E+05  +4.225E+05  +2.898E+04  -3.243E+04  +7.680E+05
 +7.33E+00  +2.93E+00  +8.065E+03  +5.240E+03  +1.102E+04  +5.823E+03  -1.019E+04  +3.024E+05  +1.965E+05  +4.133E+05  +2.184E+04  -3.823E+04  +7.636E+05
 +7.67E+00  +2.07E+00  +2.863E+03  +1.117E+02  +1.198E+04  +8.496E+03  -5.399E+03  +1.074E+05  +4.190E+03  +4.494E+05  +3.186E+04  -2.024E+04  +7.855E+05
 +7.67E+00  +2.33E+00  +3.527E+03  +1.651E+03  +1.204E+04  +6.480E+03  -7.350E+03  +1.322E+05  +6.191E+04  +4.513E+05  +2.430E+04  -2.756E+04  +7.901E+05
 +7.67E+00  +2.67E+00  +4.292E+03  +3.273E+03  +1.188E+04  +5.509E+03  -9.714E+03  +1.609E+05  +1.227E+05  +4.453E+05  +2.066E+04  -3.643E+04  +7.850E+05
 +7.67E+00  +2.93E+00  +4.796E+03  +4.219E+03  +1.159E+04  +3.860E+03  -1.138E+04  +1.799E+05  +1.582E+05  +4.348E+05  +1.448E+04  -4.267E+04  +7.720E+05
 +7.93E+00  +2.07E+00  +1.154E+03  -1.164E+01  +1.222E+04  +6.310E+03  -7.021E+03  +4.326E+04  -4.365E+02  +4.582E+05  +2.366E+04  -2.633E+04  +7.948E+05
 +7.93E+00  +2.33E+00  +1.463E+03  +1.262E+03  +1.225E+04  +4.517E+03  -9.213E+03  +5.485E+04  +4.733E+04  +4.594E+05  +1.694E+04  -3.455E+04  +7.973E+05
 +7.93E+00  +2.67E+00  +1.770E+03  +2.585E+03  +1.206E+04  +3.651E+03  -1.187E+04  +6.639E+04  +9.694E+04  +4.522E+05  +1.369E+04  -4.452E+04  +7.879E+05
 +7.93E+00  +2.93E+00  +1.932E+03  +3.340E+03  +1.175E+04  +2.214E+03  -1.375E+04  +7.245E+04  +1.252E+05  +4.407E+05  +8.302E+03  -5.155E+04  +7.711E+05

element # = 29     type =16-n plate
 XX         YY         MXX         MYY         MXY         QYZ         QZX         SIGXX       SIGYY       TAUXY       TAUXZ(Z=0)  TAUYZ(Z=0)   SIGV
 +8.07E+00  +2.07E+00  +9.928E+01  -1.106E+02  +1.222E+04  +5.048E+03  -7.189E+03  +3.723E+03  -4.147E+03  +4.581E+05  +1.893E+04  -2.696E+04  +7.935E+05
 +8.07E+00  +2.33E+00  +1.992E+02  +1.017E+03  +1.224E+04  +3.378E+03  -9.396E+03  +7.471E+03  +3.815E+04  +4.588E+05  +1.267E+04  -3.523E+04  +7.955E+05
 +8.07E+00  +2.67E+00  +2.375E+02  +2.176E+03  +1.203E+04  +2.574E+03  -1.207E+04  +8.908E+03  +8.161E+04  +4.511E+05  +9.651E+03  -4.527E+04  +7.852E+05
 +8.07E+00  +2.93E+00  +1.980E+02  +2.825E+03  +1.171E+04  +1.257E+03  -1.396E+04  +7.425E+03  +1.060E+05  +4.392E+05  +4.714E+03  -5.234E+04  +7.676E+05
 +8.33E+00  +2.07E+00  -2.194E+03  -3.704E+02  +1.200E+04  +2.573E+03  -9.317E+03  -8.228E+04  -1.389E+04  +4.501E+05  +9.647E+03  -3.494E+04  +7.833E+05
 +8.33E+00  +2.33E+00  -2.528E+03  +4.776E+02  +1.200E+04  +1.144E+03  -1.179E+04  -9.478E+04  +1.791E+04  +4.499E+05  +4.289E+03  -4.421E+04  +7.863E+05
 +8.33E+00  +2.67E+00  -3.046E+03  +1.322E+03  +1.176E+04  +4.629E+02  -1.479E+04  -1.142E+05  +4.956E+04  +4.411E+05  +1.736E+03  -5.545E+04  +7.778E+05
 +8.33E+00  +2.93E+00  -3.500E+03  +1.769E+03  +1.143E+04  -6.165E+02  -1.690E+04  -1.312E+05  +6.633E+04  +4.285E+05  -2.312E+03  -6.336E+04  +7.624E+05
 +8.67E+00  +2.07E+00  -5.676E+03  -8.399E+02  +1.116E+04  -9.145E+02  -1.055E+04  -2.129E+05  -3.150E+04  +4.186E+05  -3.430E+03  -3.957E+04  +7.519E+05
 +8.67E+00  +2.33E+00  -6.641E+03  -3.587E+02  +1.112E+04  -2.015E+03  -1.312E+04  -2.490E+05  -1.345E+04  +4.172E+05  -7.557E+03  -4.922E+04  +7.622E+05
 +8.67E+00  +2.67E+00  -7.966E+03  +7.369E+01  +1.086E+04  -2.511E+03  -1.624E+04  -2.987E+05  +2.763E+03  +4.074E+05  -9.416E+03  -6.090E+04  +7.667E+05
 +8.67E+00  +2.93E+00  -9.015E+03  +2.581E+02  +1.052E+04  -3.257E+03  -1.843E+04  -3.381E+05  +9.679E+03  +3.944E+05  -1.221E+04  -6.911E+04  +7.644E+05
 +8.93E+00  +2.07E+00  -8.721E+03  -1.304E+03  +1.006E+04  -4.001E+03  -1.308E+04  -3.270E+05  -4.891E+04  +3.774E+05  -1.500E+04  -4.903E+04  +7.215E+05
 +8.93E+00  +2.33E+00  -1.022E+04  -1.097E+03  +1.000E+04  -4.837E+03  -1.592E+04  -3.832E+05  -4.113E+04  +3.750E+05  -1.814E+04  -5.972E+04  +7.448E+05
 +8.93E+00  +2.67E+00  -1.222E+04  -9.708E+02  +9.727E+03  -5.158E+03  -1.937E+04  -4.584E+05  -3.641E+04  +3.648E+05  -1.934E+04  -7.264E+04  +7.706E+05
 +8.93E+00  +2.93E+00  -1.377E+04  -9.812E+02  +9.389E+03  -5.622E+03  -2.178E+04  -5.164E+05  -3.679E+04  +3.521E+05  -2.108E+04  -8.167E+04  +7.879E+05

element # = 30     type =16-n plate
 XX         YY         MXX         MYY         MXY         QYZ         QZX         SIGXX       SIGYY       TAUXY       TAUXZ(Z=0)  TAUYZ(Z=0)   SIGV
 +9.07E+00  +2.07E+00  -1.056E+04  -1.605E+03  +9.465E+03  -4.772E+03  -1.330E+04  -3.961E+05  -6.018E+04  +3.549E+05  -1.790E+04  -4.989E+04  +7.174E+05
 +9.07E+00  +2.33E+00  -1.237E+04  -1.542E+03  +9.387E+03  -5.486E+03  -1.612E+04  -4.640E+05  -5.781E+04  +3.520E+05  -2.057E+04  -6.044E+04  +7.507E+05
 +9.07E+00  +2.67E+00  -1.477E+04  -1.577E+03  +9.107E+03  -5.750E+03  -1.953E+04  -5.539E+05  -5.914E+04  +3.415E+05  -2.156E+04  -7.325E+04  +7.921E+05
 +9.07E+00  +2.93E+00  -1.660E+04  -1.689E+03  +8.772E+03  -6.100E+03  -2.193E+04  -6.226E+05  -6.335E+04  +3.290E+05  -2.288E+04  -8.223E+04  +8.227E+05
 +9.33E+00  +2.07E+00  -1.449E+04  -2.276E+03  +7.408E+03  -8.347E+03  -1.652E+04  -5.434E+05  -8.534E+04  +2.778E+05  -3.130E+04  -6.194E+04  +6.983E+05
 +9.33E+00  +2.33E+00  -1.697E+04  -2.471E+03  +7.318E+03  -8.764E+03  -1.974E+04  -6.364E+05  -9.268E+04  +2.744E+05  -3.287E+04  -7.402E+04  +7.619E+05
 +9.33E+00  +2.67E+00  -2.020E+04  -2.796E+03  +7.064E+03  -8.783E+03  -2.357E+04  -7.575E+05  -1.049E+05  +2.649E+05  -3.294E+04  -8.840E+04  +8.461E+05
 +9.33E+00  +2.93E+00  -2.263E+04  -3.091E+03  +6.778E+03  -8.808E+03  -2.621E+04  -8.487E+05  -1.159E+05  +2.542E+05  -3.303E+04  -9.830E+04  +9.106E+05
 +9.67E+00  +2.07E+00  -2.037E+04  -3.315E+03  +4.548E+03  -1.236E+04  -1.824E+04  -7.638E+05  -1.243E+05  +1.705E+05  -4.636E+04  -6.842E+04  +7.689E+05
 +9.67E+00  +2.33E+00  -2.384E+04  -3.811E+03  +4.464E+03  -1.238E+04  -2.153E+04  -8.938E+05  -1.429E+05  +1.674E+05  -4.643E+04  -8.074E+04  +8.807E+05
 +9.67E+00  +2.67E+00  -2.827E+04  -4.471E+03  +4.275E+03  -1.204E+04  -2.543E+04  -1.060E+06  -1.677E+05  +1.603E+05  -4.514E+04  -9.535E+04  +1.025E+06
 +9.67E+00  +2.93E+00  -3.154E+04  -4.978E+03  +4.078E+03  -1.166E+04  -2.810E+04  -1.183E+06  -1.867E+05  +1.529E+05  -4.372E+04  -1.054E+05  +1.133E+06
 +9.93E+00  +2.07E+00  -2.545E+04  -4.224E+03  +2.173E+03  -4.754E+03  -2.196E+04  -9.543E+05  -1.584E+05  +8.149E+04  -1.783E+04  -8.235E+04  +8.970E+05
 +9.93E+00  +2.33E+00  -2.976E+04  -4.929E+03  +2.121E+03  -4.708E+03  -2.564E+04  -1.116E+06  -1.848E+05  +7.952E+04  -1.765E+04  -9.614E+04  +1.045E+06
 +9.93E+00  +2.67E+00  -3.520E+04  -5.822E+03  +2.015E+03  -4.539E+03  -2.991E+04  -1.320E+06  -2.183E+05  +7.554E+04  -1.702E+04  -1.122E+05  +1.232E+06
 +9.93E+00  +2.93E+00  -3.916E+04  -6.477E+03  +1.911E+03  -4.356E+03  -3.279E+04  -1.469E+06  -2.429E+05  +7.168E+04  -1.633E+04  -1.230E+05  +1.369E+06

element # = 31     type =16-n plate
 XX         YY         MXX         MYY         MXY         QYZ         QZX         SIGXX       SIGYY       TAUXY       TAUXZ(Z=0)  TAUYZ(Z=0)   SIGV
 +6.94E-02  +3.07E+00  -4.119E+04  -6.813E+03  -1.853E+03  -4.243E+03  +3.418E+04  -1.545E+06  -2.555E+05  -6.947E+04  -1.591E+04  +1.282E+05  +1.439E+06
 +6.94E-02  +3.33E+00  -4.483E+04  -7.418E+03  -1.736E+03  -4.014E+03  +3.655E+04  -1.681E+06  -2.782E+05  -6.512E+04  -1.505E+04  +1.371E+05  +1.565E+06
 +6.94E-02  +3.67E+00  -4.923E+04  -8.150E+03  -1.581E+03  -3.694E+03  +3.921E+04  -1.846E+06  -3.056E+05  -5.928E+04  -1.385E+04  +1.470E+05  +1.717E+06
 +6.94E-02  +3.93E+00  -5.232E+04  -8.667E+03  -1.461E+03  -3.441E+03  +4.094E+04  -1.962E+06  -3.250E+05  -5.479E+04  -1.290E+04  +1.535E+05  +1.824E+06
 +3.30E-01  +3.07E+00  -3.322E+04  -5.246E+03  -3.965E+03  -1.138E+04  +2.941E+04  -1.246E+06  -1.967E+05  -1.487E+05  -4.269E+04  +1.103E+05  +1.188E+06
 +3.30E-01  +3.33E+00  -3.627E+04  -5.739E+03  -3.734E+03  -1.084E+04  +3.166E+04  -1.360E+06  -2.152E+05  -1.400E+05  -4.066E+04  +1.187E+05  +1.289E+06
 +3.30E-01  +3.67E+00  -3.999E+04  -6.352E+03  -3.421E+03  -1.004E+04  +3.423E+04  -1.500E+06  -2.382E+05  -1.283E+05  -3.764E+04  +1.283E+05  +1.414E+06
 +3.30E-01  +3.93E+00  -4.264E+04  -6.795E+03  -3.175E+03  -9.408E+03  +3.593E+04  -1.599E+06  -2.548E+05  -1.191E+05  -3.528E+04  +1.347E+05  +1.502E+06
 +6.70E-01  +3.07E+00  -2.390E+04  -3.263E+03  -6.610E+03  -8.663E+03  +2.750E+04  -8.962E+05  -1.224E+05  -2.479E+05  -3.249E+04  +1.031E+05  +9.449E+05
 +6.70E-01  +3.33E+00  -2.622E+04  -3.604E+03  -6.260E+03  -8.461E+03  +2.973E+04  -9.831E+05  -1.352E+05  -2.347E+05  -3.173E+04  +1.115E+05  +1.009E+06
 +6.70E-01  +3.67E+00  -2.909E+04  -4.053E+03  -5.774E+03  -7.994E+03  +3.228E+04  -1.091E+06  -1.520E+05  -2.165E+05  -2.998E+04  +1.210E+05  +1.090E+06
 +6.70E-01  +3.93E+00  -3.116E+04  -4.397E+03  -5.386E+03  -7.650E+03  +3.397E+04  -1.169E+06  -1.649E+05  -2.020E+05  -2.869E+04  +1.274E+05  +1.150E+06
 +9.31E-01  +3.07E+00  -1.757E+04  -1.781E+03  -8.571E+03  -6.047E+03  +2.311E+04  -6.590E+05  -6.678E+04  -3.214E+05  -2.268E+04  +8.667E+04  +8.394E+05
 +9.31E-01  +3.33E+00  -1.936E+04  -1.993E+03  -8.146E+03  -6.126E+03  +2.517E+04  -7.260E+05  -7.476E+04  -3.055E+05  -2.297E+04  +9.440E+04  +8.708E+05
 +9.31E-01  +3.67E+00  -2.160E+04  -2.305E+03  -7.547E+03  -5.931E+03  +2.758E+04  -8.102E+05  -8.645E+04  -2.830E+05  -2.224E+04  +1.034E+05  +9.133E+05
 +9.31E-01  +3.93E+00  -2.325E+04  -2.568E+03  -7.064E+03  -5.839E+03  +2.921E+04  -8.718E+05  -9.632E+04  -2.649E+05  -2.190E+04  +1.095E+05  +9.465E+05

element # = 32     type =16-n plate
 XX         YY         MXX         MYY         MXY         QYZ         QZX         SIGXX       SIGYY       TAUXY       TAUXZ(Z=0)  TAUYZ(Z=0)   SIGV
 +1.07E+00  +3.07E+00  -1.459E+04  -1.027E+03  -9.183E+03  -5.580E+03  +2.297E+04  -5.472E+05  -3.853E+04  -3.444E+05  -2.093E+04  +8.613E+04  +7.972E+05
 +1.07E+00  +3.33E+00  -1.612E+04  -1.169E+03  -8.745E+03  -5.744E+03  +2.504E+04  -6.044E+05  -4.385E+04  -3.279E+05  -2.154E+04  +9.388E+04  +8.144E+05
 +1.07E+00  +3.67E+00  -1.805E+04  -1.406E+03  -8.123E+03  -5.604E+03  +2.744E+04  -6.768E+05  -5.272E+04  -3.046E+05  -2.101E+04  +1.029E+05  +8.387E+05
 +1.07E+00  +3.93E+00  -1.947E+04  -1.625E+03  -7.616E+03  -5.585E+03  +2.908E+04  -7.301E+05  -6.092E+04  -2.856E+05  -2.094E+04  +1.090E+05  +8.585E+05
 +1.33E+00  +3.07E+00  -9.583E+03  +2.981E+02  -1.030E+04  -3.275E+03  +1.951E+04  -3.594E+05  +1.118E+04  -3.864E+05  -1.228E+04  +7.317E+04  +7.623E+05
 +1.33E+00  +3.33E+00  -1.065E+04  +2.914E+02  -9.842E+03  -3.682E+03  +2.140E+04  -3.994E+05  +1.093E+04  -3.691E+05  -1.381E+04  +8.026E+04  +7.568E+05
 +1.33E+00  +3.67E+00  -1.203E+04  +1.989E+02  -9.178E+03  -3.748E+03  +2.362E+04  -4.511E+05  +7.457E+03  -3.442E+05  -1.406E+04  +8.859E+04  +7.498E+05
 +1.33E+00  +3.93E+00  -1.306E+04  +6.555E+01  -8.630E+03  -3.953E+03  +2.514E+04  -4.897E+05  +2.458E+03  -3.236E+05  -1.482E+04  +9.429E+04  +7.452E+05
 +1.67E+00  +3.07E+00  -3.761E+03  +1.926E+03  -1.121E+04  -6.890E+02  +1.794E+04  -1.410E+05  +7.221E+04  -4.206E+05  -2.584E+03  +6.729E+04  +7.523E+05
 +1.67E+00  +3.33E+00  -4.278E+03  +2.102E+03  -1.075E+04  -1.378E+03  +1.977E+04  -1.604E+05  +7.881E+04  -4.030E+05  -5.168E+03  +7.414E+04  +7.293E+05
 +1.67E+00  +3.67E+00  -4.980E+03  +2.204E+03  -1.006E+04  -1.659E+03  +2.193E+04  -1.867E+05  +8.265E+04  -3.774E+05  -6.222E+03  +8.222E+04  +6.961E+05
 +1.67E+00  +3.93E+00  -5.531E+03  +2.186E+03  -9.495E+03  -2.124E+03  +2.340E+04  -2.074E+05  +8.198E+04  -3.561E+05  -7.966E+03  +8.776E+04  +6.687E+05
 +1.93E+00  +3.07E+00  +1.508E+02  +3.072E+03  -1.151E+04  +1.152E+03  +1.489E+04  +5.656E+03  +1.152E+05  -4.316E+05  +4.322E+03  +5.585E+04  +7.559E+05
 +1.93E+00  +3.33E+00  +2.187E+01  +3.390E+03  -1.105E+04  +2.638E+02  +1.653E+04  +8.202E+02  +1.271E+05  -4.145E+05  +9.893E+02  +6.200E+04  +7.291E+05
 +1.93E+00  +3.67E+00  -2.000E+02  +3.644E+03  -1.038E+04  -1.588E+02  +1.848E+04  -7.501E+03  +1.366E+05  -3.893E+05  -5.953E+02  +6.930E+04  +6.888E+05
 +1.93E+00  +3.93E+00  -4.067E+02  +3.716E+03  -9.817E+03  -8.088E+02  +1.982E+04  -1.525E+04  +1.394E+05  -3.681E+05  -3.033E+03  +7.433E+04  +6.545E+05

element # = 33     type =16-n plate
 XX         YY         MXX         MYY         MXY         QYZ         QZX         SIGXX       SIGYY       TAUXY       TAUXZ(Z=0)  TAUYZ(Z=0)   SIGV
 +2.07E+00  +3.07E+00  +1.989E+03  +3.634E+03  -1.155E+04  +2.094E+03  +1.468E+04  +7.459E+04  +1.363E+05  -4.333E+05  +7.854E+03  +5.505E+04  +7.597E+05
 +2.07E+00  +3.33E+00  +2.050E+03  +4.025E+03  -1.111E+04  +1.105E+03  +1.631E+04  +7.686E+04  +1.509E+05  -4.166E+05  +4.144E+03  +6.117E+04  +7.333E+05
 +2.07E+00  +3.67E+00  +2.063E+03  +4.358E+03  -1.045E+04  +6.137E+02  +1.825E+04  +7.737E+04  +1.634E+05  -3.918E+05  +2.301E+03  +6.844E+04  +6.932E+05
 +2.07E+00  +3.93E+00  +2.027E+03  +4.479E+03  -9.889E+03  -1.300E+02  +1.959E+04  +7.601E+04  +1.679E+05  -3.708E+05  -4.876E+02  +7.346E+04  +6.586E+05
 +2.33E+00  +3.07E+00  +5.031E+03  +4.599E+03  -1.141E+04  +3.718E+03  +1.221E+04  +1.887E+05  +1.725E+05  -4.278E+05  +1.394E+04  +4.577E+04  +7.628E+05
 +2.33E+00  +3.33E+00  +5.417E+03  +5.125E+03  -1.099E+04  +2.553E+03  +1.365E+04  +2.031E+05  +1.922E+05  -4.121E+05  +9.573E+03  +5.120E+04  +7.407E+05
 +2.33E+00  +3.67E+00  +5.836E+03  +5.604E+03  -1.036E+04  +1.948E+03  +1.537E+04  +2.188E+05  +2.101E+05  -3.885E+05  +7.303E+03  +5.765E+04  +7.063E+05
 +2.33E+00  +3.93E+00  +6.094E+03  +5.811E+03  -9.823E+03  +1.041E+03  +1.656E+04  +2.285E+05  +2.179E+05  -3.683E+05  +3.904E+03  +6.211E+04  +6.760E+05
 +2.67E+00  +3.07E+00  +8.510E+03  +5.727E+03  -1.086E+04  +5.657E+03  +1.096E+04  +3.191E+05  +2.148E+05  -4.071E+05  +2.122E+04  +4.111E+04  +7.594E+05
 +2.67E+00  +3.33E+00  +9.278E+03  +6.422E+03  -1.048E+04  +4.283E+03  +1.231E+04  +3.479E+05  +2.408E+05  -3.929E+05  +1.606E+04  +4.618E+04  +7.473E+05
 +2.67E+00  +3.67E+00  +1.018E+04  +7.082E+03  -9.903E+03  +3.547E+03  +1.392E+04  +3.816E+05  +2.656E+05  -3.714E+05  +1.330E+04  +5.221E+04  +7.270E+05
 +2.67E+00  +3.93E+00  +1.078E+04  +7.400E+03  -9.408E+03  +2.446E+03  +1.504E+04  +4.044E+05  +2.775E+05  -3.528E+05  +9.174E+03  +5.640E+04  +7.083E+05
 +2.93E+00  +3.07E+00  +1.080E+04  +6.485E+03  -1.017E+04  +6.994E+03  +8.770E+03  +4.050E+05  +2.432E+05  -3.813E+05  +2.623E+04  +3.289E+04  +7.490E+05
 +2.93E+00  +3.33E+00  +1.183E+04  +7.301E+03  -9.828E+03  +5.476E+03  +9.923E+03  +4.436E+05  +2.738E+05  -3.685E+05  +2.053E+04  +3.721E+04  +7.468E+05
 +2.93E+00  +3.67E+00  +1.306E+04  +8.093E+03  -9.304E+03  +4.654E+03  +1.130E+04  +4.897E+05  +3.035E+05  -3.489E+05  +1.745E+04  +4.237E+04  +7.406E+05
 +2.93E+00  +3.93E+00  +1.391E+04  +8.490E+03  -8.850E+03  +3.420E+03  +1.225E+04  +5.215E+05  +3.184E+05  -3.319E+05  +1.283E+04  +4.596E+04  +7.333E+05

element # = 34     type =16-n plate
 XX         YY         MXX         MYY         MXY         QYZ         QZX         SIGXX       SIGYY       TAUXY       TAUXZ(Z=0)  TAUYZ(Z=0)   SIGV
 +3.07E+00  +3.07E+00  +1.185E+04  +6.844E+03  -9.729E+03  +7.641E+03  +8.565E+03  +4.443E+05  +2.566E+05  -3.648E+05  +2.865E+04  +3.212E+04  +7.406E+05
 +3.07E+00  +3.33E+00  +1.300E+04  +7.719E+03  -9.408E+03  +6.052E+03  +9.696E+03  +4.876E+05  +2.895E+05  -3.528E+05  +2.270E+04  +3.636E+04  +7.442E+05
 +3.07E+00  +3.67E+00  +1.439E+04  +8.576E+03  -8.913E+03  +5.190E+03  +1.105E+04  +5.395E+05  +3.216E+05  -3.342E+05  +1.946E+04  +4.143E+04  +7.457E+05
 +3.07E+00  +3.93E+00  +1.535E+04  +9.013E+03  -8.484E+03  +3.892E+03  +1.199E+04  +5.756E+05  +3.380E+05  -3.181E+05  +1.460E+04  +4.496E+04  +7.448E+05
 +3.33E+00  +3.07E+00  +1.353E+04  +7.435E+03  -8.759E+03  +8.732E+03  +6.726E+03  +5.072E+05  +2.788E+05  -3.285E+05  +3.274E+04  +2.522E+04  +7.192E+05
 +3.33E+00  +3.33E+00  +1.488E+04  +8.414E+03  -8.479E+03  +7.024E+03  +7.660E+03  +5.581E+05  +3.155E+05  -3.180E+05  +2.634E+04  +2.872E+04  +7.337E+05
 +3.33E+00  +3.67E+00  +1.653E+04  +9.383E+03  -8.044E+03  +6.095E+03  +8.772E+03  +6.197E+05  +3.519E+05  -3.016E+05  +2.286E+04  +3.289E+04  +7.502E+05
 +3.33E+00  +3.93E+00  +1.768E+04  +9.888E+03  -7.664E+03  +4.687E+03  +9.545E+03  +6.629E+05  +3.708E+05  -2.874E+05  +1.758E+04  +3.579E+04  +7.609E+05
 +3.67E+00  +3.07E+00  +1.536E+04  +8.081E+03  -7.281E+03  +9.941E+03  +5.735E+03  +5.759E+05  +3.030E+05  -2.730E+05  +3.728E+04  +2.151E+04  +6.875E+05
 +3.67E+00  +3.33E+00  +1.694E+04  +9.177E+03  -7.056E+03  +8.102E+03  +6.544E+03  +6.353E+05  +3.441E+05  -2.646E+05  +3.038E+04  +2.454E+04  +7.165E+05
 +3.67E+00  +3.67E+00  +1.887E+04  +1.027E+04  -6.703E+03  +7.100E+03  +7.514E+03  +7.076E+05  +3.853E+05  -2.514E+05  +2.662E+04  +2.818E+04  +7.524E+05
 +3.67E+00  +3.93E+00  +2.023E+04  +1.086E+04  -6.393E+03  +5.571E+03  +8.192E+03  +7.588E+05  +4.071E+05  -2.397E+05  +2.089E+04  +3.072E+04  +7.778E+05
 +3.93E+00  +3.07E+00  +1.649E+04  +8.478E+03  -5.997E+03  +1.070E+04  +4.065E+03  +6.183E+05  +3.179E+05  -2.249E+05  +4.012E+04  +1.524E+04  +6.622E+05
 +3.93E+00  +3.33E+00  +1.821E+04  +9.649E+03  -5.816E+03  +8.778E+03  +4.669E+03  +6.830E+05  +3.618E+05  -2.181E+05  +3.292E+04  +1.751E+04  +7.021E+05
 +3.93E+00  +3.67E+00  +2.032E+04  +1.083E+04  -5.529E+03  +7.732E+03  +5.390E+03  +7.622E+05  +4.060E+05  -2.074E+05  +2.899E+04  +2.021E+04  +7.518E+05
 +3.93E+00  +3.93E+00  +2.182E+04  +1.146E+04  -5.277E+03  +6.128E+03  +5.892E+03  +8.183E+05  +4.298E+05  -1.979E+05  +2.298E+04  +2.209E+04  +7.875E+05

element # = 35     type =16-n plate
 XX         YY         MXX         MYY         MXY         QYZ         QZX         SIGXX       SIGYY       TAUXY       TAUXZ(Z=0)  TAUYZ(Z=0)   SIGV
 +4.07E+00  +3.07E+00  +1.696E+04  +8.649E+03  -5.278E+03  +1.103E+04  +3.882E+03  +6.360E+05  +3.244E+05  -1.979E+05  +4.137E+04  +1.456E+04  +6.488E+05
 +4.07E+00  +3.33E+00  +1.875E+04  +9.854E+03  -5.119E+03  +9.075E+03  +4.454E+03  +7.031E+05  +3.695E+05  -1.920E+05  +3.403E+04  +1.670E+04  +6.940E+05
 +4.07E+00  +3.67E+00  +2.094E+04  +1.107E+04  -4.869E+03  +8.009E+03  +5.139E+03  +7.851E+05  +4.151E+05  -1.826E+05  +3.004E+04  +1.927E+04  +7.502E+05
 +4.07E+00  +3.93E+00  +2.249E+04  +1.173E+04  -4.649E+03  +6.372E+03  +5.619E+03  +8.435E+05  +4.397E+05  -1.743E+05  +2.389E+04  +2.107E+04  +7.906E+05
 +4.33E+00  +3.07E+00  +1.762E+04  +8.899E+03  -3.857E+03  +1.152E+04  +2.384E+03  +6.609E+05  +3.337E+05  -1.446E+05  +4.321E+04  +8.940E+03  +6.248E+05
 +4.33E+00  +3.33E+00  +1.950E+04  +1.015E+04  -3.743E+03  +9.513E+03  +2.749E+03  +7.312E+05  +3.808E+05  -1.404E+05  +3.567E+04  +1.031E+04  +6.784E+05
 +4.33E+00  +3.67E+00  +2.180E+04  +1.142E+04  -3.562E+03  +8.418E+03  +3.183E+03  +8.174E+05  +4.284E+05  -1.336E+05  +3.157E+04  +1.194E+04  +7.450E+05
 +4.33E+00  +3.93E+00  +2.343E+04  +1.211E+04  -3.402E+03  +6.730E+03  +3.484E+03  +8.787E+05  +4.542E+05  -1.276E+05  +2.524E+04  +1.307E+04  +7.926E+05
 +4.67E+00  +3.07E+00  +1.819E+04  +9.107E+03  -1.929E+03  +1.193E+04  +1.528E+03  +6.823E+05  +3.415E+05  -7.232E+04  +4.475E+04  +5.730E+03  +6.040E+05
 +4.67E+00  +3.33E+00  +2.014E+04  +1.040E+04  -1.872E+03  +9.879E+03  +1.755E+03  +7.553E+05  +3.901E+05  -7.021E+04  +3.705E+04  +6.581E+03  +6.655E+05
 +4.67E+00  +3.67E+00  +2.254E+04  +1.172E+04  -1.783E+03  +8.761E+03  +2.030E+03  +8.451E+05  +4.395E+05  -6.685E+04  +3.285E+04  +7.611E+03  +7.412E+05
 +4.67E+00  +3.93E+00  +2.424E+04  +1.244E+04  -1.703E+03  +7.032E+03  +2.223E+03  +9.091E+05  +4.664E+05  -6.387E+04  +2.637E+04  +8.338E+03  +7.951E+05
 +4.93E+00  +3.07E+00  +1.840E+04  +9.177E+03  -4.054E+02  +1.207E+04  +8.668E+01  +6.901E+05  +3.441E+05  -1.520E+04  +4.526E+04  +3.250E+02  +5.983E+05
 +4.93E+00  +3.33E+00  +2.038E+04  +1.049E+04  -3.935E+02  +1.000E+04  +1.048E+02  +7.643E+05  +3.933E+05  -1.476E+04  +3.750E+04  +3.931E+02  +6.625E+05
 +4.93E+00  +3.67E+00  +2.281E+04  +1.182E+04  -3.747E+02  +8.876E+03  +1.244E+02  +8.553E+05  +4.432E+05  -1.405E+04  +3.328E+04  +4.667E+02  +7.413E+05
 +4.93E+00  +3.93E+00  +2.454E+04  +1.255E+04  -3.580E+02  +7.134E+03  +1.366E+02  +9.204E+05  +4.704E+05  -1.343E+04  +2.675E+04  +5.122E+02  +7.975E+05

element # = 36     type =16-n plate
 XX         YY         MXX         MYY         MXY         QYZ         QZX         SIGXX       SIGYY       TAUXY       TAUXZ(Z=0)  TAUYZ(Z=0)   SIGV
 +5.07E+00  +3.07E+00  +1.840E+04  +9.177E+03  +4.054E+02  +1.207E+04  -8.668E+01  +6.901E+05  +3.441E+05  +1.520E+04  +4.526E+04  -3.250E+02  +5.983E+05
 +5.07E+00  +3.33E+00  +2.038E+04  +1.049E+04  +3.935E+02  +1.000E+04  -1.048E+02  +7.643E+05  +3.933E+05  +1.476E+04  +3.750E+04  -3.931E+02  +6.625E+05
 +5.07E+00  +3.67E+00  +2.281E+04  +1.182E+04  +3.747E+02  +8.876E+03  -1.244E+02  +8.553E+05  +4.432E+05  +1.405E+04  +3.328E+04  -4.667E+02  +7.413E+05
 +5.07E+00  +3.93E+00  +2.454E+04  +1.255E+04  +3.580E+02  +7.134E+03  -1.366E+02  +9.204E+05  +4.704E+05  +1.343E+04  +2.675E+04  -5.122E+02  +7.975E+05
 +5.33E+00  +3.07E+00  +1.819E+04  +9.107E+03  +1.929E+03  +1.193E+04  -1.528E+03  +6.823E+05  +3.415E+05  +7.232E+04  +4.475E+04  -5.730E+03  +6.040E+05
 +5.33E+00  +3.33E+00  +2.014E+04  +1.040E+04  +1.872E+03  +9.879E+03  -1.755E+03  +7.553E+05  +3.901E+05  +7.021E+04  +3.705E+04  -6.581E+03  +6.655E+05
 +5.33E+00  +3.67E+00  +2.254E+04  +1.172E+04  +1.783E+03  +8.761E+03  -2.030E+03  +8.451E+05  +4.395E+05  +6.685E+04  +3.285E+04  -7.611E+03  +7.412E+05
 +5.33E+00  +3.93E+00  +2.424E+04  +1.244E+04  +1.703E+03  +7.032E+03  -2.223E+03  +9.091E+05  +4.664E+05  +6.387E+04  +2.637E+04  -8.338E+03  +7.951E+05
 +5.67E+00  +3.07E+00  +1.762E+04  +8.899E+03  +3.857E+03  +1.152E+04  -2.384E+03  +6.609E+05  +3.337E+05  +1.446E+05  +4.321E+04  -8.940E+03  +6.248E+05
 +5.67E+00  +3.33E+00  +1.950E+04  +1.015E+04  +3.743E+03  +9.513E+03  -2.749E+03  +7.312E+05  +3.808E+05  +1.404E+05  +3.567E+04  -1.031E+04  +6.784E+05
 +5.67E+00  +3.67E+00  +2.180E+04  +1.142E+04  +3.562E+03  +8.418E+03  -3.183E+03  +8.174E+05  +4.284E+05  +1.336E+05  +3.157E+04  -1.194E+04  +7.450E+05
 +5.67E+00  +3.93E+00  +2.343E+04  +1.211E+04  +3.402E+03  +6.730E+03  -3.484E+03  +8.787E+05  +4.542E+05  +1.276E+05  +2.524E+04  -1.307E+04  +7.926E+05
 +5.93E+00  +3.07E+00  +1.696E+04  +8.649E+03  +5.278E+03  +1.103E+04  -3.882E+03  +6.360E+05  +3.244E+05  +1.979E+05  +4.137E+04  -1.456E+04  +6.488E+05
 +5.93E+00  +3.33E+00  +1.875E+04  +9.854E+03  +5.119E+03  +9.075E+03  -4.454E+03  +7.031E+05  +3.695E+05  +1.920E+05  +3.403E+04  -1.670E+04  +6.940E+05
 +5.93E+00  +3.67E+00  +2.094E+04  +1.107E+04  +4.869E+03  +8.009E+03  -5.139E+03  +7.851E+05  +4.151E+05  +1.826E+05  +3.004E+04  -1.927E+04  +7.502E+05
 +5.93E+00  +3.93E+00  +2.249E+04  +1.173E+04  +4.649E+03  +6.372E+03  -5.619E+03  +8.435E+05  +4.397E+05  +1.743E+05  +2.389E+04  -2.107E+04  +7.906E+05

element # = 37     type =16-n plate
 XX         YY         MXX         MYY         MXY         QYZ         QZX         SIGXX       SIGYY       TAUXY       TAUXZ(Z=0)  TAUYZ(Z=0)   SIGV
 +6.07E+00  +3.07E+00  +1.649E+04  +8.478E+03  +5.997E+03  +1.070E+04  -4.065E+03  +6.183E+05  +3.179E+05  +2.249E+05  +4.012E+04  -1.524E+04  +6.622E+05
 +6.07E+00  +3.33E+00  +1.821E+04  +9.649E+03  +5.816E+03  +8.778E+03  -4.669E+03  +6.830E+05  +3.618E+05  +2.181E+05  +3.292E+04  -1.751E+04  +7.021E+05
 +6.07E+00  +3.67E+00  +2.032E+04  +1.083E+04  +5.529E+03  +7.732E+03  -5.390E+03  +7.622E+05  +4.060E+05  +2.074E+05  +2.899E+04  -2.021E+04  +7.518E+05
 +6.07E+00  +3.93E+00  +2.182E+04  +1.146E+04  +5.277E+03  +6.128E+03  -5.892E+03  +8.183E+05  +4.298E+05  +1.979E+05  +2.298E+04  -2.209E+04  +7.875E+05
 +6.33E+00  +3.07E+00  +1.536E+04  +8.081E+03  +7.281E+03  +9.941E+03  -5.735E+03  +5.759E+05  +3.030E+05  +2.730E+05  +3.728E+04  -2.151E+04  +6.875E+05
 +6.33E+00  +3.33E+00  +1.694E+04  +9.177E+03  +7.056E+03  +8.102E+03  -6.544E+03  +6.353E+05  +3.441E+05  +2.646E+05  +3.038E+04  -2.454E+04  +7.165E+05
 +6.33E+00  +3.67E+00  +1.887E+04  +1.027E+04  +6.703E+03  +7.100E+03  -7.514E+03  +7.076E+05  +3.853E+05  +2.514E+05  +2.662E+04  -2.818E+04  +7.524E+05
 +6.33E+00  +3.93E+00  +2.023E+04  +1.086E+04  +6.393E+03  +5.571E+03  -8.192E+03  +7.588E+05  +4.071E+05  +2.397E+05  +2.089E+04  -3.072E+04  +7.778E+05
 +6.67E+00  +3.07E+00  +1.353E+04  +7.435E+03  +8.759E+03  +8.732E+03  -6.726E+03  +5.072E+05  +2.788E+05  +3.285E+05  +3.274E+04  -2.522E+04  +7.192E+05
 +6.67E+00  +3.33E+00  +1.488E+04  +8.414E+03  +8.479E+03  +7.024E+03  -7.660E+03  +5.581E+05  +3.155E+05  +3.180E+05  +2.634E+04  -2.872E+04  +7.337E+05
 +6.67E+00  +3.67E+00  +1.653E+04  +9.383E+03  +8.044E+03  +6.095E+03  -8.772E+03  +6.197E+05  +3.519E+05  +3.016E+05  +2.286E+04  -3.289E+04  +7.502E+05
 +6.67E+00  +3.93E+00  +1.768E+04  +9.888E+03  +7.664E+03  +4.687E+03  -9.545E+03  +6.629E+05  +3.708E+05  +2.874E+05  +1.758E+04  -3.579E+04  +7.609E+05
 +6.93E+00  +3.07E+00  +1.185E+04  +6.844E+03  +9.729E+03  +7.641E+03  -8.565E+03  +4.443E+05  +2.566E+05  +3.648E+05  +2.865E+04  -3.212E+04  +7.406E+05
 +6.93E+00  +3.33E+00  +1.300E+04  +7.719E+03  +9.408E+03  +6.052E+03  -9.696E+03  +4.876E+05  +2.895E+05  +3.528E+05  +2.270E+04  -3.636E+04  +7.442E+05
 +6.93E+00  +3.67E+00  +1.439E+04  +8.576E+03  +8.913E+03  +5.190E+03  -1.105E+04  +5.395E+05  +3.216E+05  +3.342E+05  +1.946E+04  -4.143E+04  +7.457E+05
 +6.93E+00  +3.93E+00  +1.535E+04  +9.013E+03  +8.484E+03  +3.892E+03  -1.199E+04  +5.756E+05  +3.380E+05  +3.181E+05  +1.460E+04  -4.496E+04  +7.448E+05

element # = 38     type =16-n plate
 XX         YY         MXX         MYY         MXY         QYZ         QZX         SIGXX       SIGYY       TAUXY       TAUXZ(Z=0)  TAUYZ(Z=0)   SIGV
 +7.07E+00  +3.07E+00  +1.080E+04  +6.485E+03  +1.017E+04  +6.994E+03  -8.770E+03  +4.050E+05  +2.432E+05  +3.813E+05  +2.623E+04  -3.289E+04  +7.490E+05
 +7.07E+00  +3.33E+00  +1.183E+04  +7.301E+03  +9.828E+03  +5.476E+03  -9.923E+03  +4.436E+05  +2.738E+05  +3.685E+05  +2.053E+04  -3.721E+04  +7.468E+05
 +7.07E+00  +3.67E+00  +1.306E+04  +8.093E+03  +9.304E+03  +4.654E+03  -1.130E+04  +4.897E+05  +3.035E+05  +3.489E+05  +1.745E+04  -4.237E+04  +7.406E+05
 +7.07E+00  +3.93E+00  +1.391E+04  +8.490E+03  +8.850E+03  +3.420E+03  -1.225E+04  +5.215E+05  +3.184E+05  +3.319E+05  +1.283E+04  -4.596E+04  +7.333E+05
 +7.33E+00  +3.07E+00  +8.510E+03  +5.727E+03  +1.086E+04  +5.657E+03  -1.096E+04  +3.191E+05  +2.148E+05  +4.071E+05  +2.122E+04  -4.111E+04  +7.594E+05
 +7.33E+00  +3.33E+00  +9.278E+03  +6.422E+03  +1.048E+04  +4.283E+03  -1.231E+04  +3.479E+05  +2.408E+05  +3.929E+05  +1.606E+04  -4.618E+04  +7.473E+05
 +7.33E+00  +3.67E+00  +1.018E+04  +7.082E+03  +9.903E+03  +3.547E+03  -1.392E+04  +3.816E+05  +2.656E+05  +3.714E+05  +1.330E+04  -5.221E+04  +7.270E+05
 +7.33E+00  +3.93E+00  +1.078E+04  +7.400E+03  +9.408E+03  +2.446E+03  -1.504E+04  +4.044E+05  +2.775E+05  +3.528E+05  +9.174E+03  -5.640E+04  +7.083E+05
 +7.67E+00  +3.07E+00  +5.031E+03  +4.599E+03  +1.141E+04  +3.718E+03  -1.221E+04  +1.887E+05  +1.725E+05  +4.278E+05  +1.394E+04  -4.577E+04  +7.628E+05
 +7.67E+00  +3.33E+00  +5.417E+03  +5.125E+03  +1.099E+04  +2.553E+03  -1.365E+04  +2.031E+05  +1.922E+05  +4.121E+05  +9.573E+03  -5.120E+04  +7.407E+05
 +7.67E+00  +3.67E+00  +5.836E+03  +5.604E+03  +1.036E+04  +1.948E+03  -1.537E+04  +2.188E+05  +2.101E+05  +3.885E+05  +7.303E+03  -5.765E+04  +7.063E+05
 +7.67E+00  +3.93E+00  +6.094E+03  +5.811E+03  +9.823E+03  +1.041E+03  -1.656E+04  +2.285E+05  +2.179E+05  +3.683E+05  +3.904E+03  -6.211E+04  +6.760E+05
 +7.93E+00  +3.07E+00  +1.989E+03  +3.634E+03  +1.155E+04  +2.094E+03  -1.468E+04  +7.459E+04  +1.363E+05  +4.333E+05  +7.854E+03  -5.505E+04  +7.597E+05
 +7.93E+00  +3.33E+00  +2.050E+03  +4.025E+03  +1.111E+04  +1.105E+03  -1.631E+04  +7.686E+04  +1.509E+05  +4.166E+05  +4.144E+03  -6.117E+04  +7.333E+05
 +7.93E+00  +3.67E+00  +2.063E+03  +4.358E+03  +1.045E+04  +6.137E+02  -1.825E+04  +7.737E+04  +1.634E+05  +3.918E+05  +2.301E+03  -6.844E+04  +6.932E+05
 +7.93E+00  +3.93E+00  +2.027E+03  +4.479E+03  +9.889E+03  -1.300E+02  -1.959E+04  +7.601E+04  +1.679E+05  +3.708E+05  -4.876E+02  -7.346E+04  +6.586E+05

element # = 39     type =16-n plate
 XX         YY         MXX         MYY         MXY         QYZ         QZX         SIGXX       SIGYY       TAUXY       TAUXZ(Z=0)  TAUYZ(Z=0)   SIGV
 +8.07E+00  +3.07E+00  +1.508E+02  +3.072E+03  +1.151E+04  +1.152E+03  -1.489E+04  +5.656E+03  +1.152E+05  +4.316E+05  +4.322E+03  -5.585E+04  +7.559E+05
 +8.07E+00  +3.33E+00  +2.187E+01  +3.390E+03  +1.105E+04  +2.638E+02  -1.653E+04  +8.202E+02  +1.271E+05  +4.145E+05  +9.893E+02  -6.200E+04  +7.291E+05
 +8.07E+00  +3.67E+00  -2.000E+02  +3.644E+03  +1.038E+04  -1.588E+02  -1.848E+04  -7.501E+03  +1.366E+05  +3.893E+05  -5.953E+02  -6.930E+04  +6.888E+05
 +8.07E+00  +3.93E+00  -4.067E+02  +3.716E+03  +9.817E+03  -8.088E+02  -1.982E+04  -1.525E+04  +1.394E+05  +3.681E+05  -3.033E+03  -7.433E+04  +6.545E+05
 +8.33E+00  +3.07E+00  -3.761E+03  +1.926E+03  +1.121E+04  -6.890E+02  -1.794E+04  -1.410E+05  +7.221E+04  +4.206E+05  -2.584E+03  -6.729E+04  +7.523E+05
 +8.33E+00  +3.33E+00  -4.278E+03  +2.102E+03  +1.075E+04  -1.378E+03  -1.977E+04  -1.604E+05  +7.881E+04  +4.030E+05  -5.168E+03  -7.414E+04  +7.293E+05
 +8.33E+00  +3.67E+00  -4.980E+03  +2.204E+03  +1.006E+04  -1.659E+03  -2.193E+04  -1.867E+05  +8.265E+04  +3.774E+05  -6.222E+03  -8.222E+04  +6.961E+05
 +8.33E+00  +3.93E+00  -5.531E+03  +2.186E+03  +9.495E+03  -2.124E+03  -2.340E+04  -2.074E+05  +8.198E+04  +3.561E+05  -7.966E+03  -8.776E+04  +6.687E+05
 +8.67E+00  +3.07E+00  -9.583E+03  +2.981E+02  +1.030E+04  -3.275E+03  -1.951E+04  -3.594E+05  +1.118E+04  +3.864E+05  -1.228E+04  -7.317E+04  +7.623E+05
 +8.67E+00  +3.33E+00  -1.065E+04  +2.914E+02  +9.842E+03  -3.682E+03  -2.140E+04  -3.994E+05  +1.093E+04  +3.691E+05  -1.381E+04  -8.026E+04  +7.568E+05
 +8.67E+00  +3.67E+00  -1.203E+04  +1.989E+02  +9.178E+03  -3.748E+03  -2.362E+04  -4.511E+05  +7.457E+03  +3.442E+05  -1.406E+04  -8.859E+04  +7.498E+05
 +8.67E+00  +3.93E+00  -1.306E+04  +6.555E+01  +8.630E+03  -3.953E+03  -2.514E+04  -4.897E+05  +2.458E+03  +3.236E+05  -1.482E+04  -9.429E+04  +7.452E+05
 +8.93E+00  +3.07E+00  -1.459E+04  -1.027E+03  +9.183E+03  -5.580E+03  -2.297E+04  -5.472E+05  -3.853E+04  +3.444E+05  -2.093E+04  -8.613E+04  +7.972E+05
 +8.93E+00  +3.33E+00  -1.612E+04  -1.169E+03  +8.745E+03  -5.744E+03  -2.504E+04  -6.044E+05  -4.385E+04  +3.279E+05  -2.154E+04  -9.388E+04  +8.144E+05
 +8.93E+00  +3.67E+00  -1.805E+04  -1.406E+03  +8.123E+03  -5.604E+03  -2.744E+04  -6.768E+05  -5.272E+04  +3.046E+05  -2.101E+04  -1.029E+05  +8.387E+05
 +8.93E+00  +3.93E+00  -1.947E+04  -1.625E+03  +7.616E+03  -5.585E+03  -2.908E+04  -7.301E+05  -6.092E+04  +2.856E+05  -2.094E+04  -1.090E+05  +8.585E+05

element # = 40     type =16-n plate
 XX         YY         MXX         MYY         MXY         QYZ         QZX         SIGXX       SIGYY       TAUXY       TAUXZ(Z=0)  TAUYZ(Z=0)   SIGV
 +9.07E+00  +3.07E+00  -1.757E+04  -1.781E+03  +8.571E+03  -6.047E+03  -2.311E+04  -6.590E+05  -6.678E+04  +3.214E+05  -2.268E+04  -8.667E+04  +8.394E+05
 +9.07E+00  +3.33E+00  -1.936E+04  -1.993E+03  +8.146E+03  -6.126E+03  -2.517E+04  -7.260E+05  -7.476E+04  +3.055E+05  -2.297E+04  -9.440E+04  +8.708E+05
 +9.07E+00  +3.67E+00  -2.160E+04  -2.305E+03  +7.547E+03  -5.931E+03  -2.758E+04  -8.102E+05  -8.645E+04  +2.830E+05  -2.224E+04  -1.034E+05  +9.133E+05
 +9.07E+00  +3.93E+00  -2.325E+04  -2.568E+03  +7.064E+03  -5.839E+03  -2.921E+04  -8.718E+05  -9.632E+04  +2.649E+05  -2.190E+04  -1.095E+05  +9.465E+05
 +9.33E+00  +3.07E+00  -2.390E+04  -3.263E+03  +6.610E+03  -8.663E+03  -2.750E+04  -8.962E+05  -1.224E+05  +2.479E+05  -3.249E+04  -1.031E+05  +9.449E+05
 +9.33E+00  +3.33E+00  -2.622E+04  -3.604E+03  +6.260E+03  -8.461E+03  -2.973E+04  -9.831E+05  -1.352E+05  +2.347E+05  -3.173E+04  -1.115E+05  +1.009E+06
 +9.33E+00  +3.67E+00  -2.909E+04  -4.053E+03  +5.774E+03  -7.994E+03  -3.228E+04  -1.091E+06  -1.520E+05  +2.165E+05  -2.998E+04  -1.210E+05  +1.090E+06
 +9.33E+00  +3.93E+00  -3.116E+04  -4.397E+03  +5.386E+03  -7.650E+03  -3.397E+04  -1.169E+06  -1.649E+05  +2.020E+05  -2.869E+04  -1.274E+05  +1.150E+06
 +9.67E+00  +3.07E+00  -3.322E+04  -5.246E+03  +3.965E+03  -1.138E+04  -2.941E+04  -1.246E+06  -1.967E+05  +1.487E+05  -4.269E+04  -1.103E+05  +1.188E+06
 +9.67E+00  +3.33E+00  -3.627E+04  -5.739E+03  +3.734E+03  -1.084E+04  -3.166E+04  -1.360E+06  -2.152E+05  +1.400E+05  -4.066E+04  -1.187E+05  +1.289E+06
 +9.67E+00  +3.67E+00  -3.999E+04  -6.352E+03  +3.421E+03  -1.004E+04  -3.423E+04  -1.500E+06  -2.382E+05  +1.283E+05  -3.764E+04  -1.283E+05  +1.414E+06
 +9.67E+00  +3.93E+00  -4.264E+04  -6.795E+03  +3.175E+03  -9.408E+03  -3.593E+04  -1.599E+06  -2.548E+05  +1.191E+05  -3.528E+04  -1.347E+05  +1.502E+06
 +9.93E+00  +3.07E+00  -4.119E+04  -6.813E+03  +1.853E+03  -4.243E+03  -3.418E+04  -1.545E+06  -2.555E+05  +6.947E+04  -1.591E+04  -1.282E+05  +1.439E+06
 +9.93E+00  +3.33E+00  -4.483E+04  -7.418E+03  +1.736E+03  -4.014E+03  -3.655E+04  -1.681E+06  -2.782E+05  +6.512E+04  -1.505E+04  -1.371E+05  +1.565E+06
 +9.93E+00  +3.67E+00  -4.923E+04  -8.150E+03  +1.581E+03  -3.694E+03  -3.921E+04  -1.846E+06  -3.056E+05  +5.928E+04  -1.385E+04  -1.470E+05  +1.717E+06
 +9.93E+00  +3.93E+00  -5.232E+04  -8.667E+03  +1.461E+03  -3.441E+03  -4.094E+04  -1.962E+06  -3.250E+05  +5.479E+04  -1.290E+04  -1.535E+05  +1.824E+06

element # = 41     type =16-n plate
 XX         YY         MXX         MYY         MXY         QYZ         QZX         SIGXX       SIGYY       TAUXY       TAUXZ(Z=0)  TAUYZ(Z=0)   SIGV
 +6.94E-02  +4.07E+00  -5.388E+04  -8.926E+03  -1.398E+03  -3.307E+03  +4.176E+04  -2.020E+06  -3.347E+05  -5.244E+04  -1.240E+04  +1.566E+05  +1.878E+06
 +6.94E-02  +4.33E+00  -5.662E+04  -9.385E+03  -1.284E+03  -3.057E+03  +4.314E+04  -2.123E+06  -3.519E+05  -4.813E+04  -1.146E+04  +1.618E+05  +1.973E+06
 +6.94E-02  +4.67E+00  -5.985E+04  -9.927E+03  -1.142E+03  -2.744E+03  +4.465E+04  -2.244E+06  -3.723E+05  -4.281E+04  -1.029E+04  +1.674E+05  +2.085E+06
 +6.94E-02  +4.93E+00  -6.209E+04  -1.030E+04  -1.040E+03  -2.516E+03  +4.560E+04  -2.328E+06  -3.864E+05  -3.899E+04  -9.436E+03  +1.710E+05  +2.162E+06
 +3.30E-01  +4.07E+00  -4.398E+04  -7.022E+03  -3.047E+03  -9.059E+03  +3.675E+04  -1.649E+06  -2.633E+05  -1.142E+05  -3.397E+04  +1.378E+05  +1.547E+06
 +3.30E-01  +4.33E+00  -4.634E+04  -7.428E+03  -2.808E+03  -8.417E+03  +3.814E+04  -1.738E+06  -2.786E+05  -1.053E+05  -3.157E+04  +1.430E+05  +1.627E+06
 +3.30E-01  +4.67E+00  -4.917E+04  -7.917E+03  -2.511E+03  -7.595E+03  +3.968E+04  -1.844E+06  -2.969E+05  -9.417E+04  -2.848E+04  +1.488E+05  +1.723E+06
 +3.30E-01  +4.93E+00  -5.114E+04  -8.262E+03  -2.296E+03  -6.999E+03  +4.068E+04  -1.918E+06  -3.098E+05  -8.611E+04  -2.625E+04  +1.526E+05  +1.789E+06
 +6.70E-01  +4.07E+00  -3.222E+04  -4.580E+03  -5.181E+03  -7.413E+03  +3.479E+04  -1.208E+06  -1.717E+05  -1.943E+05  -2.780E+04  +1.305E+05  +1.181E+06
 +6.70E-01  +4.33E+00  -3.411E+04  -4.919E+03  -4.798E+03  -7.005E+03  +3.617E+04  -1.279E+06  -1.845E+05  -1.799E+05  -2.627E+04  +1.356E+05  +1.237E+06
 +6.70E-01  +4.67E+00  -3.639E+04  -5.342E+03  -4.316E+03  -6.427E+03  +3.772E+04  -1.365E+06  -2.003E+05  -1.619E+05  -2.410E+04  +1.414E+05  +1.307E+06
 +6.70E-01  +4.93E+00  -3.800E+04  -5.651E+03  -3.964E+03  -6.015E+03  +3.872E+04  -1.425E+06  -2.119E+05  -1.487E+05  -2.256E+04  +1.452E+05  +1.356E+06
 +9.31E-01  +4.07E+00  -2.409E+04  -2.717E+03  -6.806E+03  -5.694E+03  +3.000E+04  -9.034E+05  -1.019E+05  -2.552E+05  -2.135E+04  +1.125E+05  +9.643E+05
 +9.31E-01  +4.33E+00  -2.561E+04  -3.005E+03  -6.322E+03  -5.496E+03  +3.136E+04  -9.605E+05  -1.127E+05  -2.371E+05  -2.061E+04  +1.176E+05  +9.978E+05
 +9.31E-01  +4.67E+00  -2.747E+04  -3.379E+03  -5.711E+03  -5.135E+03  +3.290E+04  -1.030E+06  -1.267E+05  -2.141E+05  -1.925E+04  +1.234E+05  +1.041E+06
 +9.31E-01  +4.93E+00  -2.880E+04  -3.664E+03  -5.260E+03  -4.894E+03  +3.393E+04  -1.080E+06  -1.374E+05  -1.973E+05  -1.835E+04  +1.272E+05  +1.074E+06

element # = 42     type =16-n plate
 XX         YY         MXX         MYY         MXY         QYZ         QZX         SIGXX       SIGYY       TAUXY       TAUXZ(Z=0)  TAUYZ(Z=0)   SIGV
 +1.07E+00  +4.07E+00  -2.021E+04  -1.755E+03  -7.345E+03  -5.452E+03  +2.987E+04  -7.577E+05  -6.580E+04  -2.755E+05  -2.045E+04  +1.120E+05  +8.696E+05
 +1.07E+00  +4.33E+00  -2.154E+04  -2.015E+03  -6.835E+03  -5.307E+03  +3.122E+04  -8.076E+05  -7.556E+04  -2.563E+05  -1.990E+04  +1.171E+05  +8.911E+05
 +1.07E+00  +4.67E+00  -2.317E+04  -2.363E+03  -6.187E+03  -4.985E+03  +3.276E+04  -8.688E+05  -8.861E+04  -2.320E+05  -1.869E+04  +1.229E+05  +9.205E+05
 +1.07E+00  +4.93E+00  -2.434E+04  -2.636E+03  -5.709E+03  -4.786E+03  +3.378E+04  -9.128E+05  -9.884E+04  -2.141E+05  -1.795E+04  +1.267E+05  +9.435E+05
 +1.33E+00  +4.07E+00  -1.360E+04  -2.895E+01  -8.337E+03  -3.888E+03  +2.588E+04  -5.099E+05  -1.086E+03  -3.126E+05  -1.458E+04  +9.707E+04  +7.434E+05
 +1.33E+00  +4.33E+00  -1.458E+04  -2.376E+02  -7.779E+03  -3.928E+03  +2.716E+04  -5.469E+05  -8.911E+03  -2.917E+05  -1.473E+04  +1.019E+05  +7.413E+05
 +1.33E+00  +4.67E+00  -1.581E+04  -5.370E+02  -7.067E+03  -3.782E+03  +2.863E+04  -5.928E+05  -2.014E+04  -2.650E+05  -1.418E+04  +1.073E+05  +7.420E+05
 +1.33E+00  +4.93E+00  -1.670E+04  -7.867E+02  -6.537E+03  -3.738E+03  +2.961E+04  -6.262E+05  -2.950E+04  -2.451E+05  -1.402E+04  +1.110E+05  +7.448E+05
 +1.67E+00  +4.07E+00  -5.828E+03  +2.140E+03  -9.187E+03  -2.126E+03  +2.412E+04  -2.185E+05  +8.024E+04  -3.445E+05  -7.973E+03  +9.047E+04  +6.541E+05
 +1.67E+00  +4.33E+00  -6.386E+03  +2.000E+03  -8.599E+03  -2.377E+03  +2.537E+04  -2.395E+05  +7.500E+04  -3.225E+05  -8.915E+03  +9.513E+04  +6.268E+05
 +1.67E+00  +4.67E+00  -7.101E+03  +1.765E+03  -7.842E+03  -2.419E+03  +2.680E+04  -2.663E+05  +6.620E+04  -2.941E+05  -9.072E+03  +1.005E+05  +5.936E+05
 +1.67E+00  +4.93E+00  -7.636E+03  +1.546E+03  -7.274E+03  -2.556E+03  +2.776E+04  -2.863E+05  +5.796E+04  -2.728E+05  -9.584E+03  +1.041E+05  +5.703E+05
 +1.93E+00  +4.07E+00  -5.292E+02  +3.707E+03  -9.509E+03  -8.534E+02  +2.048E+04  -1.984E+04  +1.390E+05  -3.566E+05  -3.200E+03  +7.681E+04  +6.356E+05
 +1.93E+00  +4.33E+00  -7.762E+02  +3.622E+03  -8.920E+03  -1.255E+03  +2.162E+04  -2.911E+04  +1.358E+05  -3.345E+05  -4.706E+03  +8.109E+04  +5.991E+05
 +1.93E+00  +4.67E+00  -1.117E+03  +3.439E+03  -8.157E+03  -1.424E+03  +2.295E+04  -4.191E+04  +1.289E+05  -3.059E+05  -5.340E+03  +8.606E+04  +5.518E+05
 +1.93E+00  +4.93E+00  -1.389E+03  +3.243E+03  -7.581E+03  -1.691E+03  +2.385E+04  -5.210E+04  +1.216E+05  -2.843E+05  -6.339E+03  +8.943E+04  +5.160E+05

element # = 43     type =16-n plate
 XX         YY         MXX         MYY         MXY         QYZ         QZX         SIGXX       SIGYY       TAUXY       TAUXZ(Z=0)  TAUYZ(Z=0)   SIGV
 +2.07E+00  +4.07E+00  +1.991E+03  +4.489E+03  -9.585E+03  -1.948E+02  +2.025E+04  +7.467E+04  +1.684E+05  -3.594E+05  -7.305E+02  +7.592E+04  +6.394E+05
 +2.07E+00  +4.33E+00  +1.899E+03  +4.433E+03  -8.999E+03  -6.727E+02  +2.138E+04  +7.121E+04  +1.662E+05  -3.375E+05  -2.523E+03  +8.019E+04  +6.021E+05
 +2.07E+00  +4.67E+00  +1.745E+03  +4.277E+03  -8.239E+03  -9.048E+02  +2.271E+04  +6.546E+04  +1.604E+05  -3.090E+05  -3.393E+03  +8.515E+04  +5.531E+05
 +2.07E+00  +4.93E+00  +1.606E+03  +4.094E+03  -7.665E+03  -1.238E+03  +2.360E+04  +6.024E+04  +1.535E+05  -2.874E+05  -4.642E+03  +8.851E+04  +5.156E+05
 +2.33E+00  +4.07E+00  +6.208E+03  +5.858E+03  -9.529E+03  +9.439E+02  +1.715E+04  +2.328E+05  +2.197E+05  -3.573E+05  +3.540E+03  +6.431E+04  +6.591E+05
 +2.33E+00  +4.33E+00  +6.385E+03  +5.854E+03  -8.963E+03  +3.339E+02  +1.816E+04  +2.394E+05  +2.195E+05  -3.361E+05  +1.252E+03  +6.811E+04  +6.260E+05
 +2.33E+00  +4.67E+00  +6.559E+03  +5.748E+03  -8.224E+03  -3.331E+00  +1.934E+04  +2.460E+05  +2.155E+05  -3.084E+05  -1.249E+01  +7.254E+04  +5.825E+05
 +2.33E+00  +4.93E+00  +6.653E+03  +5.589E+03  -7.662E+03  -4.522E+02  +2.015E+04  +2.495E+05  +2.096E+05  -2.873E+05  -1.696E+03  +7.555E+04  +5.492E+05
 +2.67E+00  +4.07E+00  +1.108E+04  +7.493E+03  -9.136E+03  +2.314E+03  +1.559E+04  +4.154E+05  +2.810E+05  -3.426E+05  +8.677E+03  +5.846E+04  +6.978E+05
 +2.67E+00  +4.33E+00  +1.158E+04  +7.556E+03  -8.610E+03  +1.546E+03  +1.655E+04  +4.341E+05  +2.834E+05  -3.229E+05  +5.798E+03  +6.205E+04  +6.771E+05
 +2.67E+00  +4.67E+00  +1.214E+04  +7.514E+03  -7.919E+03  +1.087E+03  +1.767E+04  +4.554E+05  +2.818E+05  -2.969E+05  +4.077E+03  +6.625E+04  +6.504E+05
 +2.67E+00  +4.93E+00  +1.252E+04  +7.387E+03  -7.391E+03  +4.991E+02  +1.843E+04  +4.694E+05  +2.770E+05  -2.772E+05  +1.872E+03  +6.911E+04  +6.305E+05
 +2.93E+00  +4.07E+00  +1.432E+04  +8.617E+03  -8.601E+03  +3.265E+03  +1.273E+04  +5.372E+05  +3.231E+05  -3.225E+05  +1.224E+04  +4.772E+04  +7.290E+05
 +2.93E+00  +4.33E+00  +1.505E+04  +8.729E+03  -8.115E+03  +2.389E+03  +1.354E+04  +5.642E+05  +3.273E+05  -3.043E+05  +8.960E+03  +5.079E+04  +7.202E+05
 +2.93E+00  +4.67E+00  +1.589E+04  +8.735E+03  -7.475E+03  +1.849E+03  +1.450E+04  +5.958E+05  +3.276E+05  -2.803E+05  +6.934E+03  +5.439E+04  +7.091E+05
 +2.93E+00  +4.93E+00  +1.646E+04  +8.632E+03  -6.985E+03  +1.165E+03  +1.516E+04  +6.171E+05  +3.237E+05  -2.619E+05  +4.367E+03  +5.685E+04  +7.012E+05

element # = 44     type =16-n plate
 XX         YY         MXX         MYY         MXY         QYZ         QZX         SIGXX       SIGYY       TAUXY       TAUXZ(Z=0)  TAUYZ(Z=0)   SIGV
 +3.07E+00  +4.07E+00  +1.583E+04  +9.157E+03  -8.247E+03  +3.726E+03  +1.245E+04  +5.935E+05  +3.434E+05  -3.093E+05  +1.397E+04  +4.670E+04  +7.438E+05
 +3.07E+00  +4.33E+00  +1.665E+04  +9.294E+03  -7.786E+03  +2.798E+03  +1.326E+04  +6.245E+05  +3.485E+05  -2.920E+05  +1.049E+04  +4.973E+04  +7.414E+05
 +3.07E+00  +4.67E+00  +1.763E+04  +9.323E+03  -7.177E+03  +2.219E+03  +1.421E+04  +6.610E+05  +3.496E+05  -2.692E+05  +8.323E+03  +5.330E+04  +7.385E+05
 +3.07E+00  +4.93E+00  +1.829E+04  +9.232E+03  -6.710E+03  +1.488E+03  +1.486E+04  +6.859E+05  +3.462E+05  -2.516E+05  +5.580E+03  +5.574E+04  +7.368E+05
 +3.33E+00  +4.07E+00  +1.825E+04  +1.006E+04  -7.454E+03  +4.504E+03  +9.926E+03  +6.844E+05  +3.773E+05  -2.795E+05  +1.689E+04  +3.722E+04  +7.661E+05
 +3.33E+00  +4.33E+00  +1.926E+04  +1.024E+04  -7.044E+03  +3.487E+03  +1.059E+04  +7.221E+05  +3.840E+05  -2.641E+05  +1.308E+04  +3.970E+04  +7.752E+05
 +3.33E+00  +4.67E+00  +2.044E+04  +1.031E+04  -6.501E+03  +2.844E+03  +1.136E+04  +7.667E+05  +3.866E+05  -2.438E+05  +1.067E+04  +4.261E+04  +7.869E+05
 +3.33E+00  +4.93E+00  +2.126E+04  +1.024E+04  -6.083E+03  +2.033E+03  +1.189E+04  +7.974E+05  +3.840E+05  -2.281E+05  +7.625E+03  +4.459E+04  +7.958E+05
 +3.67E+00  +4.07E+00  +2.092E+04  +1.106E+04  -6.221E+03  +5.370E+03  +8.527E+03  +7.843E+05  +4.148E+05  -2.333E+05  +2.014E+04  +3.198E+04  +7.907E+05
 +3.67E+00  +4.33E+00  +2.212E+04  +1.129E+04  -5.885E+03  +4.255E+03  +9.112E+03  +8.294E+05  +4.234E+05  -2.207E+05  +1.596E+04  +3.417E+04  +8.137E+05
 +3.67E+00  +4.67E+00  +2.355E+04  +1.141E+04  -5.439E+03  +3.543E+03  +9.802E+03  +8.831E+05  +4.279E+05  -2.040E+05  +1.328E+04  +3.676E+04  +8.425E+05
 +3.67E+00  +4.93E+00  +2.454E+04  +1.136E+04  -5.094E+03  +2.643E+03  +1.028E+04  +9.204E+05  +4.261E+05  -1.910E+05  +9.912E+03  +3.854E+04  +8.637E+05
 +3.93E+00  +4.07E+00  +2.257E+04  +1.169E+04  -5.137E+03  +5.916E+03  +6.139E+03  +8.465E+05  +4.383E+05  -1.926E+05  +2.219E+04  +2.302E+04  +8.056E+05
 +3.93E+00  +4.33E+00  +2.390E+04  +1.195E+04  -4.863E+03  +4.740E+03  +6.569E+03  +8.963E+05  +4.481E+05  -1.823E+05  +1.777E+04  +2.463E+04  +8.380E+05
 +3.93E+00  +4.67E+00  +2.549E+04  +1.210E+04  -4.497E+03  +3.985E+03  +7.074E+03  +9.558E+05  +4.537E+05  -1.686E+05  +1.494E+04  +2.653E+04  +8.781E+05
 +3.93E+00  +4.93E+00  +2.660E+04  +1.207E+04  -4.214E+03  +3.030E+03  +7.419E+03  +9.973E+05  +4.526E+05  -1.580E+05  +1.136E+04  +2.782E+04  +9.072E+05

element # = 45     type =16-n plate
 XX         YY         MXX         MYY         MXY         QYZ         QZX         SIGXX       SIGYY       TAUXY       TAUXZ(Z=0)  TAUYZ(Z=0)   SIGV
 +4.07E+00  +4.07E+00  +2.327E+04  +1.196E+04  -4.526E+03  +6.156E+03  +5.857E+03  +8.727E+05  +4.486E+05  -1.697E+05  +2.308E+04  +2.196E+04  +8.111E+05
 +4.07E+00  +4.33E+00  +2.465E+04  +1.224E+04  -4.285E+03  +4.953E+03  +6.272E+03  +9.245E+05  +4.588E+05  -1.607E+05  +1.857E+04  +2.352E+04  +8.477E+05
 +4.07E+00  +4.67E+00  +2.631E+04  +1.240E+04  -3.965E+03  +4.178E+03  +6.762E+03  +9.866E+05  +4.650E+05  -1.487E+05  +1.567E+04  +2.536E+04  +8.928E+05
 +4.07E+00  +4.93E+00  +2.746E+04  +1.238E+04  -3.716E+03  +3.199E+03  +7.100E+03  +1.030E+06  +4.642E+05  -1.394E+05  +1.200E+04  +2.663E+04  +9.254E+05
 +4.33E+00  +4.07E+00  +2.426E+04  +1.236E+04  -3.313E+03  +6.508E+03  +3.632E+03  +9.096E+05  +4.636E+05  -1.242E+05  +2.440E+04  +1.362E+04  +8.167E+05
 +4.33E+00  +4.33E+00  +2.571E+04  +1.266E+04  -3.138E+03  +5.264E+03  +3.888E+03  +9.642E+05  +4.747E+05  -1.177E+05  +1.974E+04  +1.458E+04  +8.596E+05
 +4.33E+00  +4.67E+00  +2.746E+04  +1.284E+04  -2.904E+03  +4.462E+03  +4.188E+03  +1.030E+06  +4.816E+05  -1.089E+05  +1.673E+04  +1.570E+04  +9.122E+05
 +4.33E+00  +4.93E+00  +2.869E+04  +1.283E+04  -2.723E+03  +3.447E+03  +4.392E+03  +1.076E+06  +4.812E+05  -1.021E+05  +1.293E+04  +1.647E+04  +9.500E+05
 +4.67E+00  +4.07E+00  +2.510E+04  +1.270E+04  -1.659E+03  +6.804E+03  +2.320E+03  +9.413E+05  +4.762E+05  -6.221E+04  +2.551E+04  +8.700E+03  +8.223E+05
 +4.67E+00  +4.33E+00  +2.663E+04  +1.301E+04  -1.572E+03  +5.527E+03  +2.490E+03  +9.985E+05  +4.880E+05  -5.894E+04  +2.073E+04  +9.337E+03  +8.708E+05
 +4.67E+00  +4.67E+00  +2.846E+04  +1.321E+04  -1.456E+03  +4.702E+03  +2.692E+03  +1.067E+06  +4.956E+05  -5.459E+04  +1.763E+04  +1.010E+04  +9.298E+05
 +4.67E+00  +4.93E+00  +2.974E+04  +1.321E+04  -1.365E+03  +3.656E+03  +2.832E+03  +1.115E+06  +4.955E+05  -5.120E+04  +1.371E+04  +1.062E+04  +9.719E+05
 +4.93E+00  +4.07E+00  +2.542E+04  +1.281E+04  -3.487E+02  +6.904E+03  +1.419E+02  +9.531E+05  +4.804E+05  -1.308E+04  +2.589E+04  +5.323E+02  +8.257E+05
 +4.93E+00  +4.33E+00  +2.696E+04  +1.313E+04  -3.304E+02  +5.616E+03  +1.502E+02  +1.011E+06  +4.924E+05  -1.239E+04  +2.106E+04  +5.634E+02  +8.760E+05
 +4.93E+00  +4.67E+00  +2.883E+04  +1.334E+04  -3.060E+02  +4.784E+03  +1.585E+02  +1.081E+06  +5.003E+05  -1.147E+04  +1.794E+04  +5.943E+02  +9.372E+05
 +4.93E+00  +4.93E+00  +3.013E+04  +1.334E+04  -2.870E+02  +3.729E+03  +1.630E+02  +1.130E+06  +5.003E+05  -1.076E+04  +1.398E+04  +6.112E+02  +9.809E+05

element # = 46     type =16-n plate
 XX         YY         MXX         MYY         MXY         QYZ         QZX         SIGXX       SIGYY       TAUXY       TAUXZ(Z=0)  TAUYZ(Z=0)   SIGV
 +5.07E+00  +4.07E+00  +2.542E+04  +1.281E+04  +3.487E+02  +6.904E+03  -1.419E+02  +9.531E+05  +4.804E+05  +1.308E+04  +2.589E+04  -5.323E+02  +8.257E+05
 +5.07E+00  +4.33E+00  +2.696E+04  +1.313E+04  +3.304E+02  +5.616E+03  -1.502E+02  +1.011E+06  +4.924E+05  +1.239E+04  +2.106E+04  -5.634E+02  +8.760E+05
 +5.07E+00  +4.67E+00  +2.883E+04  +1.334E+04  +3.060E+02  +4.784E+03  -1.585E+02  +1.081E+06  +5.003E+05  +1.147E+04  +1.794E+04  -5.943E+02  +9.372E+05
 +5.07E+00  +4.93E+00  +3.013E+04  +1.334E+04  +2.870E+02  +3.729E+03  -1.630E+02  +1.130E+06  +5.003E+05  +1.076E+04  +1.398E+04  -6.112E+02  +9.809E+05
 +5.33E+00  +4.07E+00  +2.510E+04  +1.270E+04  +1.659E+03  +6.804E+03  -2.320E+03  +9.413E+05  +4.762E+05  +6.221E+04  +2.551E+04  -8.700E+03  +8.223E+05
 +5.33E+00  +4.33E+00  +2.663E+04  +1.301E+04  +1.572E+03  +5.527E+03  -2.490E+03  +9.985E+05  +4.880E+05  +5.894E+04  +2.073E+04  -9.337E+03  +8.708E+05
 +5.33E+00  +4.67E+00  +2.846E+04  +1.321E+04  +1.456E+03  +4.702E+03  -2.692E+03  +1.067E+06  +4.956E+05  +5.459E+04  +1.763E+04  -1.010E+04  +9.298E+05
 +5.33E+00  +4.93E+00  +2.974E+04  +1.321E+04  +1.365E+03  +3.656E+03  -2.832E+03  +1.115E+06  +4.955E+05  +5.120E+04  +1.371E+04  -1.062E+04  +9.719E+05
 +5.67E+00  +4.07E+00  +2.426E+04  +1.236E+04  +3.313E+03  +6.508E+03  -3.632E+03  +9.096E+05  +4.636E+05  +1.242E+05  +2.440E+04  -1.362E+04  +8.167E+05
 +5.67E+00  +4.33E+00  +2.571E+04  +1.266E+04  +3.138E+03  +5.264E+03  -3.888E+03  +9.642E+05  +4.747E+05  +1.177E+05  +1.974E+04  -1.458E+04  +8.596E+05
 +5.67E+00  +4.67E+00  +2.746E+04  +1.284E+04  +2.904E+03  +4.462E+03  -4.188E+03  +1.030E+06  +4.816E+05  +1.089E+05  +1.673E+04  -1.570E+04  +9.122E+05
 +5.67E+00  +4.93E+00  +2.869E+04  +1.283E+04  +2.723E+03  +3.447E+03  -4.392E+03  +1.076E+06  +4.812E+05  +1.021E+05  +1.293E+04  -1.647E+04  +9.500E+05
 +5.93E+00  +4.07E+00  +2.327E+04  +1.196E+04  +4.526E+03  +6.156E+03  -5.857E+03  +8.727E+05  +4.486E+05  +1.697E+05  +2.308E+04  -2.196E+04  +8.111E+05
 +5.93E+00  +4.33E+00  +2.465E+04  +1.224E+04  +4.285E+03  +4.953E+03  -6.272E+03  +9.245E+05  +4.588E+05  +1.607E+05  +1.857E+04  -2.352E+04  +8.477E+05
 +5.93E+00  +4.67E+00  +2.631E+04  +1.240E+04  +3.965E+03  +4.178E+03  -6.762E+03  +9.866E+05  +4.650E+05  +1.487E+05  +1.567E+04  -2.536E+04  +8.928E+05
 +5.93E+00  +4.93E+00  +2.746E+04  +1.238E+04  +3.716E+03  +3.199E+03  -7.100E+03  +1.030E+06  +4.642E+05  +1.394E+05  +1.200E+04  -2.663E+04  +9.254E+05

element # = 47     type =16-n plate
 XX         YY         MXX         MYY         MXY         QYZ         QZX         SIGXX       SIGYY       TAUXY       TAUXZ(Z=0)  TAUYZ(Z=0)   SIGV
 +6.07E+00  +4.07E+00  +2.257E+04  +1.169E+04  +5.137E+03  +5.916E+03  -6.139E+03  +8.465E+05  +4.383E+05  +1.926E+05  +2.219E+04  -2.302E+04  +8.056E+05
 +6.07E+00  +4.33E+00  +2.390E+04  +1.195E+04  +4.863E+03  +4.740E+03  -6.569E+03  +8.963E+05  +4.481E+05  +1.823E+05  +1.777E+04  -2.463E+04  +8.380E+05
 +6.07E+00  +4.67E+00  +2.549E+04  +1.210E+04  +4.497E+03  +3.985E+03  -7.074E+03  +9.558E+05  +4.537E+05  +1.686E+05  +1.494E+04  -2.653E+04  +8.781E+05
 +6.07E+00  +4.93E+00  +2.660E+04  +1.207E+04  +4.214E+03  +3.030E+03  -7.419E+03  +9.973E+05  +4.526E+05  +1.580E+05  +1.136E+04  -2.782E+04  +9.072E+05
 +6.33E+00  +4.07E+00  +2.092E+04  +1.106E+04  +6.221E+03  +5.370E+03  -8.527E+03  +7.843E+05  +4.148E+05  +2.333E+05  +2.014E+04  -3.198E+04  +7.907E+05
 +6.33E+00  +4.33E+00  +2.212E+04  +1.129E+04  +5.885E+03  +4.255E+03  -9.112E+03  +8.294E+05  +4.234E+05  +2.207E+05  +1.596E+04  -3.417E+04  +8.137E+05
 +6.33E+00  +4.67E+00  +2.355E+04  +1.141E+04  +5.439E+03  +3.543E+03  -9.802E+03  +8.831E+05  +4.279E+05  +2.040E+05  +1.328E+04  -3.676E+04  +8.425E+05
 +6.33E+00  +4.93E+00  +2.454E+04  +1.136E+04  +5.094E+03  +2.643E+03  -1.028E+04  +9.204E+05  +4.261E+05  +1.910E+05  +9.912E+03  -3.854E+04  +8.637E+05
 +6.67E+00  +4.07E+00  +1.825E+04  +1.006E+04  +7.454E+03  +4.504E+03  -9.926E+03  +6.844E+05  +3.773E+05  +2.795E+05  +1.689E+04  -3.722E+04  +7.661E+05
 +6.67E+00  +4.33E+00  +1.926E+04  +1.024E+04  +7.044E+03  +3.487E+03  -1.059E+04  +7.221E+05  +3.840E+05  +2.641E+05  +1.308E+04  -3.970E+04  +7.752E+05
 +6.67E+00  +4.67E+00  +2.044E+04  +1.031E+04  +6.501E+03  +2.844E+03  -1.136E+04  +7.667E+05  +3.866E+05  +2.438E+05  +1.067E+04  -4.261E+04  +7.869E+05
 +6.67E+00  +4.93E+00  +2.126E+04  +1.024E+04  +6.083E+03  +2.033E+03  -1.189E+04  +7.974E+05  +3.840E+05  +2.281E+05  +7.625E+03  -4.459E+04  +7.958E+05
 +6.93E+00  +4.07E+00  +1.583E+04  +9.157E+03  +8.247E+03  +3.726E+03  -1.245E+04  +5.935E+05  +3.434E+05  +3.093E+05  +1.397E+04  -4.670E+04  +7.438E+05
 +6.93E+00  +4.33E+00  +1.665E+04  +9.294E+03  +7.786E+03  +2.798E+03  -1.326E+04  +6.245E+05  +3.485E+05  +2.920E+05  +1.049E+04  -4.973E+04  +7.414E+05
 +6.93E+00  +4.67E+00  +1.763E+04  +9.323E+03  +7.177E+03  +2.219E+03  -1.421E+04  +6.610E+05  +3.496E+05  +2.692E+05  +8.323E+03  -5.330E+04  +7.385E+05
 +6.93E+00  +4.93E+00  +1.829E+04  +9.232E+03  +6.710E+03  +1.488E+03  -1.486E+04  +6.859E+05  +3.462E+05  +2.516E+05  +5.580E+03  -5.574E+04  +7.368E+05

element # = 48     type =16-n plate
 XX         YY         MXX         MYY         MXY         QYZ         QZX         SIGXX       SIGYY       TAUXY       TAUXZ(Z=0)  TAUYZ(Z=0)   SIGV
 +7.07E+00  +4.07E+00  +1.432E+04  +8.617E+03  +8.601E+03  +3.265E+03  -1.273E+04  +5.372E+05  +3.231E+05  +3.225E+05  +1.224E+04  -4.772E+04  +7.290E+05
 +7.07E+00  +4.33E+00  +1.505E+04  +8.729E+03  +8.115E+03  +2.389E+03  -1.354E+04  +5.642E+05  +3.273E+05  +3.043E+05  +8.960E+03  -5.079E+04  +7.202E+05
 +7.07E+00  +4.67E+00  +1.589E+04  +8.735E+03  +7.475E+03  +1.849E+03  -1.450E+04  +5.958E+05  +3.276E+05  +2.803E+05  +6.934E+03  -5.439E+04  +7.091E+05
 +7.07E+00  +4.93E+00  +1.646E+04  +8.632E+03  +6.985E+03  +1.165E+03  -1.516E+04  +6.171E+05  +3.237E+05  +2.619E+05  +4.367E+03  -5.685E+04  +7.012E+05
 +7.33E+00  +4.07E+00  +1.108E+04  +7.493E+03  +9.136E+03  +2.314E+03  -1.559E+04  +4.154E+05  +2.810E+05  +3.426E+05  +8.677E+03  -5.846E+04  +6.978E+05
 +7.33E+00  +4.33E+00  +1.158E+04  +7.556E+03  +8.610E+03  +1.546E+03  -1.655E+04  +4.341E+05  +2.834E+05  +3.229E+05  +5.798E+03  -6.205E+04  +6.771E+05
 +7.33E+00  +4.67E+00  +1.214E+04  +7.514E+03  +7.919E+03  +1.087E+03  -1.767E+04  +4.554E+05  +2.818E+05  +2.969E+05  +4.077E+03  -6.625E+04  +6.504E+05
 +7.33E+00  +4.93E+00  +1.252E+04  +7.387E+03  +7.391E+03  +4.991E+02  -1.843E+04  +4.694E+05  +2.770E+05  +2.772E+05  +1.872E+03  -6.911E+04  +6.305E+05
 +7.67E+00  +4.07E+00  +6.208E+03  +5.858E+03  +9.529E+03  +9.439E+02  -1.715E+04  +2.328E+05  +2.197E+05  +3.573E+05  +3.540E+03  -6.431E+04  +6.591E+05
 +7.67E+00  +4.33E+00  +6.385E+03  +5.854E+03  +8.963E+03  +3.339E+02  -1.816E+04  +2.394E+05  +2.195E+05  +3.361E+05  +1.252E+03  -6.811E+04  +6.260E+05
 +7.67E+00  +4.67E+00  +6.559E+03  +5.748E+03  +8.224E+03  -3.331E+00  -1.934E+04  +2.460E+05  +2.155E+05  +3.084E+05  -1.249E+01  -7.254E+04  +5.825E+05
 +7.67E+00  +4.93E+00  +6.653E+03  +5.589E+03  +7.662E+03  -4.522E+02  -2.015E+04  +2.495E+05  +2.096E+05  +2.873E+05  -1.696E+03  -7.555E+04  +5.492E+05
 +7.93E+00  +4.07E+00  +1.991E+03  +4.489E+03  +9.585E+03  -1.948E+02  -2.025E+04  +7.467E+04  +1.684E+05  +3.594E+05  -7.305E+02  -7.592E+04  +6.394E+05
 +7.93E+00  +4.33E+00  +1.899E+03  +4.433E+03  +8.999E+03  -6.727E+02  -2.138E+04  +7.121E+04  +1.662E+05  +3.375E+05  -2.523E+03  -8.019E+04  +6.021E+05
 +7.93E+00  +4.67E+00  +1.745E+03  +4.277E+03  +8.239E+03  -9.048E+02  -2.271E+04  +6.546E+04  +1.604E+05  +3.090E+05  -3.393E+03  -8.515E+04  +5.531E+05
 +7.93E+00  +4.93E+00  +1.606E+03  +4.094E+03  +7.665E+03  -1.238E+03  -2.360E+04  +6.024E+04  +1.535E+05  +2.874E+05  -4.642E+03  -8.851E+04  +5.156E+05

element # = 49     type =16-n plate
 XX         YY         MXX         MYY         MXY         QYZ         QZX         SIGXX       SIGYY       TAUXY       TAUXZ(Z=0)  TAUYZ(Z=0)   SIGV
 +8.07E+00  +4.07E+00  -5.292E+02  +3.707E+03  +9.509E+03  -8.534E+02  -2.048E+04  -1.984E+04  +1.390E+05  +3.566E+05  -3.200E+03  -7.681E+04  +6.356E+05
 +8.07E+00  +4.33E+00  -7.762E+02  +3.622E+03  +8.920E+03  -1.255E+03  -2.162E+04  -2.911E+04  +1.358E+05  +3.345E+05  -4.706E+03  -8.109E+04  +5.991E+05
 +8.07E+00  +4.67E+00  -1.117E+03  +3.439E+03  +8.157E+03  -1.424E+03  -2.295E+04  -4.191E+04  +1.289E+05  +3.059E+05  -5.340E+03  -8.606E+04  +5.518E+05
 +8.07E+00  +4.93E+00  -1.389E+03  +3.243E+03  +7.581E+03  -1.691E+03  -2.385E+04  -5.210E+04  +1.216E+05  +2.843E+05  -6.339E+03  -8.943E+04  +5.160E+05
 +8.33E+00  +4.07E+00  -5.828E+03  +2.140E+03  +9.187E+03  -2.126E+03  -2.412E+04  -2.185E+05  +8.024E+04  +3.445E+05  -7.973E+03  -9.047E+04  +6.541E+05
 +8.33E+00  +4.33E+00  -6.386E+03  +2.000E+03  +8.599E+03  -2.377E+03  -2.537E+04  -2.395E+05  +7.500E+04  +3.225E+05  -8.915E+03  -9.513E+04  +6.268E+05
 +8.33E+00  +4.67E+00  -7.101E+03  +1.765E+03  +7.842E+03  -2.419E+03  -2.680E+04  -2.663E+05  +6.620E+04  +2.941E+05  -9.072E+03  -1.005E+05  +5.936E+05
 +8.33E+00  +4.93E+00  -7.636E+03  +1.546E+03  +7.274E+03  -2.556E+03  -2.776E+04  -2.863E+05  +5.796E+04  +2.728E+05  -9.584E+03  -1.041E+05  +5.703E+05
 +8.67E+00  +4.07E+00  -1.360E+04  -2.895E+01  +8.337E+03  -3.888E+03  -2.588E+04  -5.099E+05  -1.086E+03  +3.126E+05  -1.458E+04  -9.707E+04  +7.434E+05
 +8.67E+00  +4.33E+00  -1.458E+04  -2.376E+02  +7.779E+03  -3.928E+03  -2.716E+04  -5.469E+05  -8.911E+03  +2.917E+05  -1.473E+04  -1.019E+05  +7.413E+05
 +8.67E+00  +4.67E+00  -1.581E+04  -5.370E+02  +7.067E+03  -3.782E+03  -2.863E+04  -5.928E+05  -2.014E+04  +2.650E+05  -1.418E+04  -1.073E+05  +7.420E+05
 +8.67E+00  +4.93E+00  -1.670E+04  -7.867E+02  +6.537E+03  -3.738E+03  -2.961E+04  -6.262E+05  -2.950E+04  +2.451E+05  -1.402E+04  -1.110E+05  +7.448E+05
 +8.93E+00  +4.07E+00  -2.021E+04  -1.755E+03  +7.345E+03  -5.452E+03  -2.987E+04  -7.577E+05  -6.580E+04  +2.755E+05  -2.045E+04  -1.120E+05  +8.696E+05
 +8.93E+00  +4.33E+00  -2.154E+04  -2.015E+03  +6.835E+03  -5.307E+03  -3.122E+04  -8.076E+05  -7.556E+04  +2.563E+05  -1.990E+04  -1.171E+05  +8.911E+05
 +8.93E+00  +4.67E+00  -2.317E+04  -2.363E+03  +6.187E+03  -4.985E+03  -3.276E+04  -8.688E+05  -8.861E+04  +2.320E+05  -1.869E+04  -1.229E+05  +9.205E+05
 +8.93E+00  +4.93E+00  -2.434E+04  -2.636E+03  +5.709E+03  -4.786E+03  -3.378E+04  -9.128E+05  -9.884E+04  +2.141E+05  -1.795E+04  -1.267E+05  +9.435E+05

element # = 50     type =16-n plate
 XX         YY         MXX         MYY         MXY         QYZ         QZX         SIGXX       SIGYY       TAUXY       TAUXZ(Z=0)  TAUYZ(Z=0)   SIGV
 +9.07E+00  +4.07E+00  -2.409E+04  -2.717E+03  +6.806E+03  -5.694E+03  -3.000E+04  -9.034E+05  -1.019E+05  +2.552E+05  -2.135E+04  -1.125E+05  +9.643E+05
 +9.07E+00  +4.33E+00  -2.561E+04  -3.005E+03  +6.322E+03  -5.496E+03  -3.136E+04  -9.605E+05  -1.127E+05  +2.371E+05  -2.061E+04  -1.176E+05  +9.978E+05
 +9.07E+00  +4.67E+00  -2.747E+04  -3.379E+03  +5.711E+03  -5.135E+03  -3.290E+04  -1.030E+06  -1.267E+05  +2.141E+05  -1.925E+04  -1.234E+05  +1.041E+06
 +9.07E+00  +4.93E+00  -2.880E+04  -3.664E+03  +5.260E+03  -4.894E+03  -3.393E+04  -1.080E+06  -1.374E+05  +1.973E+05  -1.835E+04  -1.272E+05  +1.074E+06
 +9.33E+00  +4.07E+00  -3.222E+04  -4.580E+03  +5.181E+03  -7.413E+03  -3.479E+04  -1.208E+06  -1.717E+05  +1.943E+05  -2.780E+04  -1.305E+05  +1.181E+06
 +9.33E+00  +4.33E+00  -3.411E+04  -4.919E+03  +4.798E+03  -7.005E+03  -3.617E+04  -1.279E+06  -1.845E+05  +1.799E+05  -2.627E+04  -1.356E+05  +1.237E+06
 +9.33E+00  +4.67E+00  -3.639E+04  -5.342E+03  +4.316E+03  -6.427E+03  -3.772E+04  -1.365E+06  -2.003E+05  +1.619E+05  -2.410E+04  -1.414E+05  +1.307E+06
 +9.33E+00  +4.93E+00  -3.800E+04  -5.651E+03  +3.964E+03  -6.015E+03  -3.872E+04  -1.425E+06  -2.119E+05  +1.487E+05  -2.256E+04  -1.452E+05  +1.356E+06
 +9.67E+00  +4.07E+00  -4.398E+04  -7.022E+03  +3.047E+03  -9.059E+03  -3.675E+04  -1.649E+06  -2.633E+05  +1.142E+05  -3.397E+04  -1.378E+05  +1.547E+06
 +9.67E+00  +4.33E+00  -4.634E+04  -7.428E+03  +2.808E+03  -8.417E+03  -3.814E+04  -1.738E+06  -2.786E+05  +1.053E+05  -3.157E+04  -1.430E+05  +1.627E+06
 +9.67E+00  +4.67E+00  -4.917E+04  -7.917E+03  +2.511E+03  -7.595E+03  -3.968E+04  -1.844E+06  -2.969E+05  +9.417E+04  -2.848E+04  -1.488E+05  +1.723E+06
 +9.67E+00  +4.93E+00  -5.114E+04  -8.262E+03  +2.296E+03  -6.999E+03  -4.068E+04  -1.918E+06  -3.098E+05  +8.611E+04  -2.625E+04  -1.526E+05  +1.789E+06
 +9.93E+00  +4.07E+00  -5.388E+04  -8.926E+03  +1.398E+03  -3.307E+03  -4.176E+04  -2.020E+06  -3.347E+05  +5.244E+04  -1.240E+04  -1.566E+05  +1.878E+06
 +9.93E+00  +4.33E+00  -5.662E+04  -9.385E+03  +1.284E+03  -3.057E+03  -4.314E+04  -2.123E+06  -3.519E+05  +4.813E+04  -1.146E+04  -1.618E+05  +1.973E+06
 +9.93E+00  +4.67E+00  -5.985E+04  -9.927E+03  +1.142E+03  -2.744E+03  -4.465E+04  -2.244E+06  -3.723E+05  +4.281E+04  -1.029E+04  -1.674E+05  +2.085E+06
 +9.93E+00  +4.93E+00  -6.209E+04  -1.030E+04  +1.040E+03  -2.516E+03  -4.560E+04  -2.328E+06  -3.864E+05  +3.899E+04  -9.436E+03  -1.710E+05  +2.162E+06

element # = 51     type =16-n plate
 XX         YY         MXX         MYY         MXY         QYZ         QZX         SIGXX       SIGYY       TAUXY       TAUXZ(Z=0)  TAUYZ(Z=0)   SIGV
 +6.94E-02  +5.07E+00  -6.320E+04  -1.049E+04  -9.884E+02  -2.401E+03  +4.604E+04  -2.370E+06  -3.934E+05  -3.706E+04  -9.003E+03  +1.726E+05  +2.201E+06
 +6.94E-02  +5.33E+00  -6.513E+04  -1.082E+04  -8.978E+02  -2.196E+03  +4.676E+04  -2.443E+06  -4.056E+05  -3.367E+04  -8.235E+03  +1.754E+05  +2.268E+06
 +6.94E-02  +5.67E+00  -6.740E+04  -1.120E+04  -7.920E+02  -1.954E+03  +4.752E+04  -2.528E+06  -4.200E+05  -2.970E+04  -7.328E+03  +1.782E+05  +2.346E+06
 +6.94E-02  +5.93E+00  -6.896E+04  -1.146E+04  -7.208E+02  -1.790E+03  +4.799E+04  -2.586E+06  -4.299E+05  -2.703E+04  -6.713E+03  +1.799E+05  +2.401E+06
 +3.30E-01  +5.07E+00  -5.212E+04  -8.436E+03  -2.188E+03  -6.692E+03  +4.116E+04  -1.954E+06  -3.164E+05  -8.204E+04  -2.509E+04  +1.543E+05  +1.823E+06
 +3.30E-01  +5.33E+00  -5.385E+04  -8.744E+03  -1.995E+03  -6.148E+03  +4.194E+04  -2.019E+06  -3.279E+05  -7.481E+04  -2.305E+04  +1.573E+05  +1.881E+06
 +3.30E-01  +5.67E+00  -5.588E+04  -9.112E+03  -1.769E+03  -5.498E+03  +4.280E+04  -2.096E+06  -3.417E+05  -6.633E+04  -2.062E+04  +1.605E+05  +1.951E+06
 +3.30E-01  +5.93E+00  -5.729E+04  -9.371E+03  -1.616E+03  -5.057E+03  +4.335E+04  -2.148E+06  -3.514E+05  -6.058E+04  -1.896E+04  +1.626E+05  +1.999E+06
 +6.70E-01  +5.07E+00  -3.880E+04  -5.811E+03  -3.786E+03  -5.785E+03  +3.919E+04  -1.455E+06  -2.179E+05  -1.420E+05  -2.169E+04  +1.470E+05  +1.381E+06
 +6.70E-01  +5.33E+00  -4.024E+04  -6.101E+03  -3.467E+03  -5.388E+03  +3.998E+04  -1.509E+06  -2.288E+05  -1.300E+05  -2.020E+04  +1.499E+05  +1.426E+06
 +6.70E-01  +5.67E+00  -4.194E+04  -6.458E+03  -3.090E+03  -4.889E+03  +4.085E+04  -1.573E+06  -2.422E+05  -1.159E+05  -1.833E+04  +1.532E+05  +1.481E+06
 +6.70E-01  +5.93E+00  -4.314E+04  -6.716E+03  -2.832E+03  -4.551E+03  +4.140E+04  -1.618E+06  -2.518E+05  -1.062E+05  -1.707E+04  +1.552E+05  +1.519E+06
 +9.31E-01  +5.07E+00  -2.947E+04  -3.815E+03  -5.031E+03  -4.734E+03  +3.442E+04  -1.105E+06  -1.431E+05  -1.887E+05  -1.775E+04  +1.291E+05  +1.091E+06
 +9.31E-01  +5.33E+00  -3.066E+04  -4.097E+03  -4.620E+03  -4.476E+03  +3.526E+04  -1.150E+06  -1.536E+05  -1.733E+05  -1.679E+04  +1.322E+05  +1.122E+06
 +9.31E-01  +5.67E+00  -3.210E+04  -4.452E+03  -4.131E+03  -4.120E+03  +3.619E+04  -1.204E+06  -1.669E+05  -1.549E+05  -1.545E+04  +1.357E+05  +1.161E+06
 +9.31E-01  +5.93E+00  -3.311E+04  -4.716E+03  -3.794E+03  -3.884E+03  +3.681E+04  -1.242E+06  -1.769E+05  -1.423E+05  -1.457E+04  +1.380E+05  +1.189E+06

element # = 52     type =16-n plate
 XX         YY         MXX         MYY         MXY         QYZ         QZX         SIGXX       SIGYY       TAUXY       TAUXZ(Z=0)  TAUYZ(Z=0)   SIGV
 +1.07E+00  +5.07E+00  -2.494E+04  -2.783E+03  -5.464E+03  -4.635E+03  +3.427E+04  -9.351E+05  -1.044E+05  -2.049E+05  -1.738E+04  +1.285E+05  +9.558E+05
 +1.07E+00  +5.33E+00  -2.600E+04  -3.061E+03  -5.026E+03  -4.406E+03  +3.510E+04  -9.749E+05  -1.148E+05  -1.885E+05  -1.652E+04  +1.316E+05  +9.789E+05
 +1.07E+00  +5.67E+00  -2.728E+04  -3.418E+03  -4.501E+03  -4.073E+03  +3.602E+04  -1.023E+06  -1.282E+05  -1.688E+05  -1.528E+04  +1.351E+05  +1.009E+06
 +1.07E+00  +5.93E+00  -2.819E+04  -3.687E+03  -4.138E+03  -3.857E+03  +3.663E+04  -1.057E+06  -1.383E+05  -1.552E+05  -1.446E+04  +1.374E+05  +1.031E+06
 +1.33E+00  +5.07E+00  -1.715E+04  -9.272E+02  -6.265E+03  -3.643E+03  +3.008E+04  -6.433E+05  -3.477E+04  -2.349E+05  -1.366E+04  +1.128E+05  +7.472E+05
 +1.33E+00  +5.33E+00  -1.797E+04  -1.200E+03  -5.776E+03  -3.539E+03  +3.089E+04  -6.740E+05  -4.500E+04  -2.166E+05  -1.327E+04  +1.158E+05  +7.528E+05
 +1.33E+00  +5.67E+00  -1.897E+04  -1.560E+03  -5.187E+03  -3.330E+03  +3.180E+04  -7.115E+05  -5.851E+04  -1.945E+05  -1.249E+04  +1.192E+05  +7.626E+05
 +1.33E+00  +5.93E+00  -1.968E+04  -1.840E+03  -4.776E+03  -3.209E+03  +3.240E+04  -7.382E+05  -6.898E+04  -1.791E+05  -1.203E+04  +1.215E+05  +7.713E+05
 +1.67E+00  +5.07E+00  -7.915E+03  +1.414E+03  -6.982E+03  -2.520E+03  +2.823E+04  -2.968E+05  +5.302E+04  -2.618E+05  -9.449E+03  +1.059E+05  +5.589E+05
 +1.67E+00  +5.33E+00  -8.425E+03  +1.146E+03  -6.453E+03  -2.558E+03  +2.902E+04  -3.159E+05  +4.299E+04  -2.420E+05  -9.594E+03  +1.088E+05  +5.394E+05
 +1.67E+00  +5.67E+00  -9.058E+03  +7.794E+02  -5.811E+03  -2.487E+03  +2.992E+04  -3.397E+05  +2.923E+04  -2.179E+05  -9.325E+03  +1.122E+05  +5.183E+05
 +1.67E+00  +5.93E+00  -9.517E+03  +4.848E+02  -5.360E+03  -2.476E+03  +3.052E+04  -3.569E+05  +1.818E+04  -2.010E+05  -9.285E+03  +1.145E+05  +5.054E+05
 +1.93E+00  +5.07E+00  -1.537E+03  +3.118E+03  -7.284E+03  -1.694E+03  +2.429E+04  -5.763E+04  +1.169E+05  -2.731E+05  -6.353E+03  +9.107E+04  +4.976E+05
 +1.93E+00  +5.33E+00  -1.815E+03  +2.856E+03  -6.743E+03  -1.835E+03  +2.504E+04  -6.807E+04  +1.071E+05  -2.529E+05  -6.883E+03  +9.388E+04  +4.639E+05
 +1.93E+00  +5.67E+00  -2.173E+03  +2.485E+03  -6.084E+03  -1.861E+03  +2.589E+04  -8.150E+04  +9.317E+04  -2.282E+05  -6.978E+03  +9.710E+04  +4.232E+05
 +1.93E+00  +5.93E+00  -2.441E+03  +2.179E+03  -5.618E+03  -1.932E+03  +2.646E+04  -9.154E+04  +8.170E+04  -2.107E+05  -7.247E+03  +9.924E+04  +3.946E+05

element # = 53     type =16-n plate
 XX         YY         MXX         MYY         MXY         QYZ         QZX         SIGXX       SIGYY       TAUXY       TAUXZ(Z=0)  TAUYZ(Z=0)   SIGV
 +2.07E+00  +5.07E+00  +1.526E+03  +3.973E+03  -7.368E+03  -1.261E+03  +2.404E+04  +5.721E+04  +1.490E+05  -2.763E+05  -4.729E+03  +9.015E+04  +4.959E+05
 +2.07E+00  +5.33E+00  +1.365E+03  +3.713E+03  -6.826E+03  -1.455E+03  +2.479E+04  +5.119E+04  +1.392E+05  -2.560E+05  -5.456E+03  +9.295E+04  +4.599E+05
 +2.07E+00  +5.67E+00  +1.148E+03  +3.340E+03  -6.165E+03  -1.530E+03  +2.564E+04  +4.304E+04  +1.252E+05  -2.312E+05  -5.738E+03  +9.616E+04  +4.153E+05
 +2.07E+00  +5.93E+00  +9.781E+02  +3.028E+03  -5.695E+03  -1.645E+03  +2.621E+04  +3.668E+04  +1.136E+05  -2.136E+05  -6.168E+03  +9.830E+04  +3.833E+05
 +2.33E+00  +5.07E+00  +6.689E+03  +5.475E+03  -7.371E+03  -5.078E+02  +2.054E+04  +2.509E+05  +2.053E+05  -2.764E+05  -1.904E+03  +7.702E+04  +5.318E+05
 +2.33E+00  +5.33E+00  +6.737E+03  +5.220E+03  -6.839E+03  -7.937E+02  +2.121E+04  +2.526E+05  +1.957E+05  -2.565E+05  -2.976E+03  +7.953E+04  +5.000E+05
 +2.33E+00  +5.67E+00  +6.768E+03  +4.843E+03  -6.186E+03  -9.538E+02  +2.198E+04  +2.538E+05  +1.816E+05  -2.320E+05  -3.577E+03  +8.241E+04  +4.612E+05
 +2.33E+00  +5.93E+00  +6.773E+03  +4.520E+03  -5.719E+03  -1.145E+03  +2.249E+04  +2.540E+05  +1.695E+05  -2.145E+05  -4.295E+03  +8.433E+04  +4.338E+05
 +2.67E+00  +5.07E+00  +1.269E+04  +7.283E+03  -7.116E+03  +4.064E+02  +1.880E+04  +4.761E+05  +2.731E+05  -2.669E+05  +1.524E+03  +7.051E+04  +6.204E+05
 +2.67E+00  +5.33E+00  +1.299E+04  +7.035E+03  -6.612E+03  +9.367E+00  +1.944E+04  +4.873E+05  +2.638E+05  -2.480E+05  +3.513E+01  +7.291E+04  +6.024E+05
 +2.67E+00  +5.67E+00  +1.333E+04  +6.655E+03  -5.991E+03  -2.518E+02  +2.018E+04  +4.997E+05  +2.496E+05  -2.246E+05  -9.442E+02  +7.567E+04  +5.820E+05
 +2.67E+00  +5.93E+00  +1.354E+04  +6.320E+03  -5.544E+03  -5.376E+02  +2.067E+04  +5.078E+05  +2.370E+05  -2.079E+05  -2.016E+03  +7.751E+04  +5.687E+05
 +2.93E+00  +5.07E+00  +1.673E+04  +8.535E+03  -6.729E+03  +1.047E+03  +1.548E+04  +6.275E+05  +3.201E+05  -2.523E+05  +3.927E+03  +5.805E+04  +6.974E+05
 +2.93E+00  +5.33E+00  +1.721E+04  +8.295E+03  -6.259E+03  +5.728E+02  +1.603E+04  +6.454E+05  +3.110E+05  -2.347E+05  +2.148E+03  +6.011E+04  +6.912E+05
 +2.93E+00  +5.67E+00  +1.776E+04  +7.914E+03  -5.677E+03  +2.423E+02  +1.666E+04  +6.658E+05  +2.968E+05  -2.129E+05  +9.085E+02  +6.248E+04  +6.854E+05
 +2.93E+00  +5.93E+00  +1.812E+04  +7.572E+03  -5.258E+03  -1.105E+02  +1.708E+04  +6.795E+05  +2.839E+05  -1.972E+05  -4.145E+02  +6.406E+04  +6.827E+05

element # = 54     type =16-n plate
 XX         YY         MXX         MYY         MXY         QYZ         QZX         SIGXX       SIGYY       TAUXY       TAUXZ(Z=0)  TAUYZ(Z=0)   SIGV
 +3.07E+00  +5.07E+00  +1.862E+04  +9.139E+03  -6.466E+03  +1.359E+03  +1.518E+04  +6.981E+05  +3.427E+05  -2.425E+05  +5.097E+03  +5.693E+04  +7.362E+05
 +3.07E+00  +5.33E+00  +1.918E+04  +8.902E+03  -6.017E+03  +8.470E+02  +1.573E+04  +7.191E+05  +3.338E+05  -2.256E+05  +3.176E+03  +5.899E+04  +7.357E+05
 +3.07E+00  +5.67E+00  +1.982E+04  +8.521E+03  -5.461E+03  +4.831E+02  +1.636E+04  +7.434E+05  +3.195E+05  -2.048E+05  +1.811E+03  +6.135E+04  +7.369E+05
 +3.07E+00  +5.93E+00  +2.026E+04  +8.175E+03  -5.059E+03  +9.722E+01  +1.678E+04  +7.598E+05  +3.066E+05  -1.897E+05  +3.646E+02  +6.294E+04  +7.391E+05
 +3.33E+00  +5.07E+00  +2.167E+04  +1.015E+04  -5.865E+03  +1.885E+03  +1.215E+04  +8.126E+05  +3.808E+05  -2.199E+05  +7.071E+03  +4.556E+04  +8.006E+05
 +3.33E+00  +5.33E+00  +2.237E+04  +9.922E+03  -5.461E+03  +1.309E+03  +1.259E+04  +8.389E+05  +3.721E+05  -2.048E+05  +4.909E+03  +4.723E+04  +8.098E+05
 +3.33E+00  +5.67E+00  +2.319E+04  +9.541E+03  -4.961E+03  +8.891E+02  +1.310E+04  +8.696E+05  +3.578E+05  -1.860E+05  +3.334E+03  +4.914E+04  +8.227E+05
 +3.33E+00  +5.93E+00  +2.375E+04  +9.188E+03  -4.599E+03  +4.467E+02  +1.344E+04  +8.905E+05  +3.445E+05  -1.724E+05  +1.675E+03  +5.041E+04  +8.331E+05
 +3.67E+00  +5.07E+00  +2.504E+04  +1.129E+04  -4.913E+03  +2.475E+03  +1.051E+04  +9.389E+05  +4.232E+05  -1.843E+05  +9.281E+03  +3.941E+04  +8.747E+05
 +3.67E+00  +5.33E+00  +2.590E+04  +1.106E+04  -4.579E+03  +1.826E+03  +1.091E+04  +9.711E+05  +4.148E+05  -1.717E+05  +6.849E+03  +4.091E+04  +8.949E+05
 +3.67E+00  +5.67E+00  +2.691E+04  +1.068E+04  -4.164E+03  +1.345E+03  +1.137E+04  +1.009E+06  +4.005E+05  -1.561E+05  +5.043E+03  +4.265E+04  +9.207E+05
 +3.67E+00  +5.93E+00  +2.760E+04  +1.032E+04  -3.862E+03  +8.384E+02  +1.168E+04  +1.035E+06  +3.870E+05  -1.448E+05  +3.144E+03  +4.381E+04  +9.399E+05
 +3.93E+00  +5.07E+00  +2.715E+04  +1.200E+04  -4.066E+03  +2.849E+03  +7.588E+03  +1.018E+06  +4.499E+05  -1.525E+05  +1.068E+04  +2.846E+04  +9.222E+05
 +3.93E+00  +5.33E+00  +2.811E+04  +1.178E+04  -3.792E+03  +2.155E+03  +7.878E+03  +1.054E+06  +4.417E+05  -1.422E+05  +8.083E+03  +2.954E+04  +9.493E+05
 +3.93E+00  +5.67E+00  +2.924E+04  +1.140E+04  -3.449E+03  +1.635E+03  +8.211E+03  +1.097E+06  +4.275E+05  -1.293E+05  +6.131E+03  +3.079E+04  +9.833E+05
 +3.93E+00  +5.93E+00  +3.003E+04  +1.104E+04  -3.201E+03  +1.088E+03  +8.433E+03  +1.126E+06  +4.139E+05  -1.200E+05  +4.081E+03  +3.162E+04  +1.008E+06

element # = 55     type =16-n plate
 XX         YY         MXX         MYY         MXY         QYZ         QZX         SIGXX       SIGYY       TAUXY       TAUXZ(Z=0)  TAUYZ(Z=0)   SIGV
 +4.07E+00  +5.07E+00  +2.804E+04  +1.231E+04  -3.586E+03  +3.013E+03  +7.266E+03  +1.051E+06  +4.616E+05  -1.345E+05  +1.130E+04  +2.725E+04  +9.421E+05
 +4.07E+00  +5.33E+00  +2.905E+04  +1.209E+04  -3.344E+03  +2.299E+03  +7.552E+03  +1.089E+06  +4.535E+05  -1.254E+05  +8.622E+03  +2.832E+04  +9.723E+05
 +4.07E+00  +5.67E+00  +3.023E+04  +1.171E+04  -3.043E+03  +1.762E+03  +7.883E+03  +1.134E+06  +4.393E+05  -1.141E+05  +6.608E+03  +2.956E+04  +1.010E+06
 +4.07E+00  +5.93E+00  +3.105E+04  +1.135E+04  -2.824E+03  +1.197E+03  +8.106E+03  +1.165E+06  +4.256E+05  -1.059E+05  +4.489E+03  +3.040E+04  +1.037E+06
 +4.33E+00  +5.07E+00  +2.930E+04  +1.276E+04  -2.628E+03  +3.252E+03  +4.491E+03  +1.099E+06  +4.787E+05  -9.856E+04  +1.220E+04  +1.684E+04  +9.692E+05
 +4.33E+00  +5.33E+00  +3.037E+04  +1.255E+04  -2.452E+03  +2.509E+03  +4.661E+03  +1.139E+06  +4.707E+05  -9.195E+04  +9.408E+03  +1.748E+04  +1.004E+06
 +4.33E+00  +5.67E+00  +3.163E+04  +1.217E+04  -2.232E+03  +1.947E+03  +4.855E+03  +1.186E+06  +4.565E+05  -8.371E+04  +7.300E+03  +1.821E+04  +1.046E+06
 +4.33E+00  +5.93E+00  +3.250E+04  +1.181E+04  -2.072E+03  +1.355E+03  +4.983E+03  +1.219E+06  +4.427E+05  -7.770E+04  +5.081E+03  +1.869E+04  +1.077E+06
 +4.67E+00  +5.07E+00  +3.038E+04  +1.315E+04  -1.318E+03  +3.455E+03  +2.902E+03  +1.139E+06  +4.931E+05  -4.942E+04  +1.296E+04  +1.088E+04  +9.933E+05
 +4.67E+00  +5.33E+00  +3.150E+04  +1.294E+04  -1.230E+03  +2.687E+03  +3.022E+03  +1.181E+06  +4.853E+05  -4.612E+04  +1.007E+04  +1.133E+04  +1.032E+06
 +4.67E+00  +5.67E+00  +3.283E+04  +1.256E+04  -1.120E+03  +2.104E+03  +3.163E+03  +1.231E+06  +4.711E+05  -4.200E+04  +7.890E+03  +1.186E+04  +1.079E+06
 +4.67E+00  +5.93E+00  +3.375E+04  +1.219E+04  -1.040E+03  +1.490E+03  +3.259E+03  +1.266E+06  +4.572E+05  -3.900E+04  +5.586E+03  +1.222E+04  +1.112E+06
 +4.93E+00  +5.07E+00  +3.078E+04  +1.328E+04  -2.770E+02  +3.526E+03  +1.647E+02  +1.154E+06  +4.980E+05  -1.039E+04  +1.322E+04  +6.177E+02  +1.003E+06
 +4.93E+00  +5.33E+00  +3.193E+04  +1.307E+04  -2.585E+02  +2.749E+03  +1.669E+02  +1.197E+06  +4.902E+05  -9.695E+03  +1.031E+04  +6.259E+02  +1.043E+06
 +4.93E+00  +5.67E+00  +3.328E+04  +1.269E+04  -2.354E+02  +2.159E+03  +1.681E+02  +1.248E+06  +4.760E+05  -8.829E+03  +8.097E+03  +6.305E+02  +1.091E+06
 +4.93E+00  +5.93E+00  +3.422E+04  +1.232E+04  -2.186E+02  +1.538E+03  +1.679E+02  +1.283E+06  +4.622E+05  -8.198E+03  +5.766E+03  +6.297E+02  +1.126E+06

element # = 56     type =16-n plate
 XX         YY         MXX         MYY         MXY         QYZ         QZX         SIGXX       SIGYY       TAUXY       TAUXZ(Z=0)  TAUYZ(Z=0)   SIGV
 +5.07E+00  +5.07E+00  +3.078E+04  +1.328E+04  +2.770E+02  +3.526E+03  -1.647E+02  +1.154E+06  +4.980E+05  +1.039E+04  +1.322E+04  -6.177E+02  +1.003E+06
 +5.07E+00  +5.33E+00  +3.193E+04  +1.307E+04  +2.585E+02  +2.749E+03  -1.669E+02  +1.197E+06  +4.902E+05  +9.695E+03  +1.031E+04  -6.259E+02  +1.043E+06
 +5.07E+00  +5.67E+00  +3.328E+04  +1.269E+04  +2.354E+02  +2.159E+03  -1.681E+02  +1.248E+06  +4.760E+05  +8.829E+03  +8.097E+03  -6.305E+02  +1.091E+06
 +5.07E+00  +5.93E+00  +3.422E+04  +1.232E+04  +2.186E+02  +1.538E+03  -1.679E+02  +1.283E+06  +4.622E+05  +8.198E+03  +5.766E+03  -6.297E+02  +1.126E+06
 +5.33E+00  +5.07E+00  +3.038E+04  +1.315E+04  +1.318E+03  +3.455E+03  -2.902E+03  +1.139E+06  +4.931E+05  +4.942E+04  +1.296E+04  -1.088E+04  +9.933E+05
 +5.33E+00  +5.33E+00  +3.150E+04  +1.294E+04  +1.230E+03  +2.687E+03  -3.022E+03  +1.181E+06  +4.853E+05  +4.612E+04  +1.007E+04  -1.133E+04  +1.032E+06
 +5.33E+00  +5.67E+00  +3.283E+04  +1.256E+04  +1.120E+03  +2.104E+03  -3.163E+03  +1.231E+06  +4.711E+05  +4.200E+04  +7.890E+03  -1.186E+04  +1.079E+06
 +5.33E+00  +5.93E+00  +3.375E+04  +1.219E+04  +1.040E+03  +1.490E+03  -3.259E+03  +1.266E+06  +4.572E+05  +3.900E+04  +5.586E+03  -1.222E+04  +1.112E+06
 +5.67E+00  +5.07E+00  +2.930E+04  +1.276E+04  +2.628E+03  +3.252E+03  -4.491E+03  +1.099E+06  +4.787E+05  +9.856E+04  +1.220E+04  -1.684E+04  +9.692E+05
 +5.67E+00  +5.33E+00  +3.037E+04  +1.255E+04  +2.452E+03  +2.509E+03  -4.661E+03  +1.139E+06  +4.707E+05  +9.195E+04  +9.408E+03  -1.748E+04  +1.004E+06
 +5.67E+00  +5.67E+00  +3.163E+04  +1.217E+04  +2.232E+03  +1.947E+03  -4.855E+03  +1.186E+06  +4.565E+05  +8.371E+04  +7.300E+03  -1.821E+04  +1.046E+06
 +5.67E+00  +5.93E+00  +3.250E+04  +1.181E+04  +2.072E+03  +1.355E+03  -4.983E+03  +1.219E+06  +4.427E+05  +7.770E+04  +5.081E+03  -1.869E+04  +1.077E+06
 +5.93E+00  +5.07E+00  +2.804E+04  +1.231E+04  +3.586E+03  +3.013E+03  -7.266E+03  +1.051E+06  +4.616E+05  +1.345E+05  +1.130E+04  -2.725E+04  +9.421E+05
 +5.93E+00  +5.33E+00  +2.905E+04  +1.209E+04  +3.344E+03  +2.299E+03  -7.552E+03  +1.089E+06  +4.535E+05  +1.254E+05  +8.622E+03  -2.832E+04  +9.723E+05
 +5.93E+00  +5.67E+00  +3.023E+04  +1.171E+04  +3.043E+03  +1.762E+03  -7.883E+03  +1.134E+06  +4.393E+05  +1.141E+05  +6.608E+03  -2.956E+04  +1.010E+06
 +5.93E+00  +5.93E+00  +3.105E+04  +1.135E+04  +2.824E+03  +1.197E+03  -8.106E+03  +1.165E+06  +4.256E+05  +1.059E+05  +4.489E+03  -3.040E+04  +1.037E+06

element # = 57     type =16-n plate
 XX         YY         MXX         MYY         MXY         QYZ         QZX         SIGXX       SIGYY       TAUXY       TAUXZ(Z=0)  TAUYZ(Z=0)   SIGV
 +6.07E+00  +5.07E+00  +2.715E+04  +1.200E+04  +4.066E+03  +2.849E+03  -7.588E+03  +1.018E+06  +4.499E+05  +1.525E+05  +1.068E+04  -2.846E+04  +9.222E+05
 +6.07E+00  +5.33E+00  +2.811E+04  +1.178E+04  +3.792E+03  +2.155E+03  -7.878E+03  +1.054E+06  +4.417E+05  +1.422E+05  +8.083E+03  -2.954E+04  +9.493E+05
 +6.07E+00  +5.67E+00  +2.924E+04  +1.140E+04  +3.449E+03  +1.635E+03  -8.211E+03  +1.097E+06  +4.275E+05  +1.293E+05  +6.131E+03  -3.079E+04  +9.833E+05
 +6.07E+00  +5.93E+00  +3.003E+04  +1.104E+04  +3.201E+03  +1.088E+03  -8.433E+03  +1.126E+06  +4.139E+05  +1.200E+05  +4.081E+03  -3.162E+04  +1.008E+06
 +6.33E+00  +5.07E+00  +2.504E+04  +1.129E+04  +4.913E+03  +2.475E+03  -1.051E+04  +9.389E+05  +4.232E+05  +1.843E+05  +9.281E+03  -3.941E+04  +8.747E+05
 +6.33E+00  +5.33E+00  +2.590E+04  +1.106E+04  +4.579E+03  +1.826E+03  -1.091E+04  +9.711E+05  +4.148E+05  +1.717E+05  +6.849E+03  -4.091E+04  +8.949E+05
 +6.33E+00  +5.67E+00  +2.691E+04  +1.068E+04  +4.164E+03  +1.345E+03  -1.137E+04  +1.009E+06  +4.005E+05  +1.561E+05  +5.043E+03  -4.265E+04  +9.207E+05
 +6.33E+00  +5.93E+00  +2.760E+04  +1.032E+04  +3.862E+03  +8.384E+02  -1.168E+04  +1.035E+06  +3.870E+05  +1.448E+05  +3.144E+03  -4.381E+04  +9.399E+05
 +6.67E+00  +5.07E+00  +2.167E+04  +1.015E+04  +5.865E+03  +1.885E+03  -1.215E+04  +8.126E+05  +3.808E+05  +2.199E+05  +7.071E+03  -4.556E+04  +8.006E+05
 +6.67E+00  +5.33E+00  +2.237E+04  +9.922E+03  +5.461E+03  +1.309E+03  -1.259E+04  +8.389E+05  +3.721E+05  +2.048E+05  +4.909E+03  -4.723E+04  +8.098E+05
 +6.67E+00  +5.67E+00  +2.319E+04  +9.541E+03  +4.961E+03  +8.891E+02  -1.310E+04  +8.696E+05  +3.578E+05  +1.860E+05  +3.334E+03  -4.914E+04  +8.227E+05
 +6.67E+00  +5.93E+00  +2.375E+04  +9.188E+03  +4.599E+03  +4.467E+02  -1.344E+04  +8.905E+05  +3.445E+05  +1.724E+05  +1.675E+03  -5.041E+04  +8.331E+05
 +6.93E+00  +5.07E+00  +1.862E+04  +9.139E+03  +6.466E+03  +1.359E+03  -1.518E+04  +6.981E+05  +3.427E+05  +2.425E+05  +5.097E+03  -5.693E+04  +7.362E+05
 +6.93E+00  +5.33E+00  +1.918E+04  +8.902E+03  +6.017E+03  +8.470E+02  -1.573E+04  +7.191E+05  +3.338E+05  +2.256E+05  +3.176E+03  -5.899E+04  +7.357E+05
 +6.93E+00  +5.67E+00  +1.982E+04  +8.521E+03  +5.461E+03  +4.831E+02  -1.636E+04  +7.434E+05  +3.195E+05  +2.048E+05  +1.811E+03  -6.135E+04  +7.369E+05
 +6.93E+00  +5.93E+00  +2.026E+04  +8.175E+03  +5.059E+03  +9.722E+01  -1.678E+04  +7.598E+05  +3.066E+05  +1.897E+05  +3.646E+02  -6.294E+04  +7.391E+05

element # = 58     type =16-n plate
 XX         YY         MXX         MYY         MXY         QYZ         QZX         SIGXX       SIGYY       TAUXY       TAUXZ(Z=0)  TAUYZ(Z=0)   SIGV
 +7.07E+00  +5.07E+00  +1.673E+04  +8.535E+03  +6.729E+03  +1.047E+03  -1.548E+04  +6.275E+05  +3.201E+05  +2.523E+05  +3.927E+03  -5.805E+04  +6.974E+05
 +7.07E+00  +5.33E+00  +1.721E+04  +8.295E+03  +6.259E+03  +5.728E+02  -1.603E+04  +6.454E+05  +3.110E+05  +2.347E+05  +2.148E+03  -6.011E+04  +6.912E+05
 +7.07E+00  +5.67E+00  +1.776E+04  +7.914E+03  +5.677E+03  +2.423E+02  -1.666E+04  +6.658E+05  +2.968E+05  +2.129E+05  +9.085E+02  -6.248E+04  +6.854E+05
 +7.07E+00  +5.93E+00  +1.812E+04  +7.572E+03  +5.258E+03  -1.105E+02  -1.708E+04  +6.795E+05  +2.839E+05  +1.972E+05  -4.145E+02  -6.406E+04  +6.827E+05
 +7.33E+00  +5.07E+00  +1.269E+04  +7.283E+03  +7.116E+03  +4.064E+02  -1.880E+04  +4.761E+05  +2.731E+05  +2.669E+05  +1.524E+03  -7.051E+04  +6.204E+05
 +7.33E+00  +5.33E+00  +1.299E+04  +7.035E+03  +6.612E+03  +9.367E+00  -1.944E+04  +4.873E+05  +2.638E+05  +2.480E+05  +3.513E+01  -7.291E+04  +6.024E+05
 +7.33E+00  +5.67E+00  +1.333E+04  +6.655E+03  +5.991E+03  -2.518E+02  -2.018E+04  +4.997E+05  +2.496E+05  +2.246E+05  -9.442E+02  -7.567E+04  +5.820E+05
 +7.33E+00  +5.93E+00  +1.354E+04  +6.320E+03  +5.544E+03  -5.376E+02  -2.067E+04  +5.078E+05  +2.370E+05  +2.079E+05  -2.016E+03  -7.751E+04  +5.687E+05
 +7.67E+00  +5.07E+00  +6.689E+03  +5.475E+03  +7.371E+03  -5.078E+02  -2.054E+04  +2.509E+05  +2.053E+05  +2.764E+05  -1.904E+03  -7.702E+04  +5.318E+05
 +7.67E+00  +5.33E+00  +6.737E+03  +5.220E+03  +6.839E+03  -7.937E+02  -2.121E+04  +2.526E+05  +1.957E+05  +2.565E+05  -2.976E+03  -7.953E+04  +5.000E+05
 +7.67E+00  +5.67E+00  +6.768E+03  +4.843E+03  +6.186E+03  -9.538E+02  -2.198E+04  +2.538E+05  +1.816E+05  +2.320E+05  -3.577E+03  -8.241E+04  +4.612E+05
 +7.67E+00  +5.93E+00  +6.773E+03  +4.520E+03  +5.719E+03  -1.145E+03  -2.249E+04  +2.540E+05  +1.695E+05  +2.145E+05  -4.295E+03  -8.433E+04  +4.338E+05
 +7.93E+00  +5.07E+00  +1.526E+03  +3.973E+03  +7.368E+03  -1.261E+03  -2.404E+04  +5.721E+04  +1.490E+05  +2.763E+05  -4.729E+03  -9.015E+04  +4.959E+05
 +7.93E+00  +5.33E+00  +1.365E+03  +3.713E+03  +6.826E+03  -1.455E+03  -2.479E+04  +5.119E+04  +1.392E+05  +2.560E+05  -5.456E+03  -9.295E+04  +4.599E+05
 +7.93E+00  +5.67E+00  +1.148E+03  +3.340E+03  +6.165E+03  -1.530E+03  -2.564E+04  +4.304E+04  +1.252E+05  +2.312E+05  -5.738E+03  -9.616E+04  +4.153E+05
 +7.93E+00  +5.93E+00  +9.781E+02  +3.028E+03  +5.695E+03  -1.645E+03  -2.621E+04  +3.668E+04  +1.136E+05  +2.136E+05  -6.168E+03  -9.830E+04  +3.833E+05

element # = 59     type =16-n plate
 XX         YY         MXX         MYY         MXY         QYZ         QZX         SIGXX       SIGYY       TAUXY       TAUXZ(Z=0)  TAUYZ(Z=0)   SIGV
 +8.07E+00  +5.07E+00  -1.537E+03  +3.118E+03  +7.284E+03  -1.694E+03  -2.429E+04  -5.763E+04  +1.169E+05  +2.731E+05  -6.353E+03  -9.107E+04  +4.976E+05
 +8.07E+00  +5.33E+00  -1.815E+03  +2.856E+03  +6.743E+03  -1.835E+03  -2.504E+04  -6.807E+04  +1.071E+05  +2.529E+05  -6.883E+03  -9.388E+04  +4.639E+05
 +8.07E+00  +5.67E+00  -2.173E+03  +2.485E+03  +6.084E+03  -1.861E+03  -2.589E+04  -8.150E+04  +9.317E+04  +2.282E+05  -6.978E+03  -9.710E+04  +4.232E+05
 +8.07E+00  +5.93E+00  -2.441E+03  +2.179E+03  +5.618E+03  -1.932E+03  -2.646E+04  -9.154E+04  +8.170E+04  +2.107E+05  -7.247E+03  -9.924E+04  +3.946E+05
 +8.33E+00  +5.07E+00  -7.915E+03  +1.414E+03  +6.982E+03  -2.520E+03  -2.823E+04  -2.968E+05  +5.302E+04  +2.618E+05  -9.449E+03  -1.059E+05  +5.589E+05
 +8.33E+00  +5.33E+00  -8.425E+03  +1.146E+03  +6.453E+03  -2.558E+03  -2.902E+04  -3.159E+05  +4.299E+04  +2.420E+05  -9.594E+03  -1.088E+05  +5.394E+05
 +8.33E+00  +5.67E+00  -9.058E+03  +7.794E+02  +5.811E+03  -2.487E+03  -2.992E+04  -3.397E+05  +2.923E+04  +2.179E+05  -9.325E+03  -1.122E+05  +5.183E+05
 +8.33E+00  +5.93E+00  -9.517E+03  +4.848E+02  +5.360E+03  -2.476E+03  -3.052E+04  -3.569E+05  +1.818E+04  +2.010E+05  -9.285E+03  -1.145E+05  +5.054E+05
 +8.67E+00  +5.07E+00  -1.715E+04  -9.272E+02  +6.265E+03  -3.643E+03  -3.008E+04  -6.433E+05  -3.477E+04  +2.349E+05  -1.366E+04  -1.128E+05  +7.472E+05
 +8.67E+00  +5.33E+00  -1.797E+04  -1.200E+03  +5.776E+03  -3.539E+03  -3.089E+04  -6.740E+05  -4.500E+04  +2.166E+05  -1.327E+04  -1.158E+05  +7.528E+05
 +8.67E+00  +5.67E+00  -1.897E+04  -1.560E+03  +5.187E+03  -3.330E+03  -3.180E+04  -7.115E+05  -5.851E+04  +1.945E+05  -1.249E+04  -1.192E+05  +7.626E+05
 +8.67E+00  +5.93E+00  -1.968E+04  -1.840E+03  +4.776E+03  -3.209E+03  -3.240E+04  -7.382E+05  -6.898E+04  +1.791E+05  -1.203E+04  -1.215E+05  +7.713E+05
 +8.93E+00  +5.07E+00  -2.494E+04  -2.783E+03  +5.464E+03  -4.635E+03  -3.427E+04  -9.351E+05  -1.044E+05  +2.049E+05  -1.738E+04  -1.285E+05  +9.558E+05
 +8.93E+00  +5.33E+00  -2.600E+04  -3.061E+03  +5.026E+03  -4.406E+03  -3.510E+04  -9.749E+05  -1.148E+05  +1.885E+05  -1.652E+04  -1.316E+05  +9.789E+05
 +8.93E+00  +5.67E+00  -2.728E+04  -3.418E+03  +4.501E+03  -4.073E+03  -3.602E+04  -1.023E+06  -1.282E+05  +1.688E+05  -1.528E+04  -1.351E+05  +1.009E+06
 +8.93E+00  +5.93E+00  -2.819E+04  -3.687E+03  +4.138E+03  -3.857E+03  -3.663E+04  -1.057E+06  -1.383E+05  +1.552E+05  -1.446E+04  -1.374E+05  +1.031E+06

element # = 60     type =16-n plate
 XX         YY         MXX         MYY         MXY         QYZ         QZX         SIGXX       SIGYY       TAUXY       TAUXZ(Z=0)  TAUYZ(Z=0)   SIGV
 +9.07E+00  +5.07E+00  -2.947E+04  -3.815E+03  +5.031E+03  -4.734E+03  -3.442E+04  -1.105E+06  -1.431E+05  +1.887E+05  -1.775E+04  -1.291E+05  +1.091E+06
 +9.07E+00  +5.33E+00  -3.066E+04  -4.097E+03  +4.620E+03  -4.476E+03  -3.526E+04  -1.150E+06  -1.536E+05  +1.733E+05  -1.679E+04  -1.322E+05  +1.122E+06
 +9.07E+00  +5.67E+00  -3.210E+04  -4.452E+03  +4.131E+03  -4.120E+03  -3.619E+04  -1.204E+06  -1.669E+05  +1.549E+05  -1.545E+04  -1.357E+05  +1.161E+06
 +9.07E+00  +5.93E+00  -3.311E+04  -4.716E+03  +3.794E+03  -3.884E+03  -3.681E+04  -1.242E+06  -1.769E+05  +1.423E+05  -1.457E+04  -1.380E+05  +1.189E+06
 +9.33E+00  +5.07E+00  -3.880E+04  -5.811E+03  +3.786E+03  -5.785E+03  -3.919E+04  -1.455E+06  -2.179E+05  +1.420E+05  -2.169E+04  -1.470E+05  +1.381E+06
 +9.33E+00  +5.33E+00  -4.024E+04  -6.101E+03  +3.467E+03  -5.388E+03  -3.998E+04  -1.509E+06  -2.288E+05  +1.300E+05  -2.020E+04  -1.499E+05  +1.426E+06
 +9.33E+00  +5.67E+00  -4.194E+04  -6.458E+03  +3.090E+03  -4.889E+03  -4.085E+04  -1.573E+06  -2.422E+05  +1.159E+05  -1.833E+04  -1.532E+05  +1.481E+06
 +9.33E+00  +5.93E+00  -4.314E+04  -6.716E+03  +2.832E+03  -4.551E+03  -4.140E+04  -1.618E+06  -2.518E+05  +1.062E+05  -1.707E+04  -1.552E+05  +1.519E+06
 +9.67E+00  +5.07E+00  -5.212E+04  -8.436E+03  +2.188E+03  -6.692E+03  -4.116E+04  -1.954E+06  -3.164E+05  +8.204E+04  -2.509E+04  -1.543E+05  +1.823E+06
 +9.67E+00  +5.33E+00  -5.385E+04  -8.744E+03  +1.995E+03  -6.148E+03  -4.194E+04  -2.019E+06  -3.279E+05  +7.481E+04  -2.305E+04  -1.573E+05  +1.881E+06
 +9.67E+00  +5.67E+00  -5.588E+04  -9.112E+03  +1.769E+03  -5.498E+03  -4.280E+04  -2.096E+06  -3.417E+05  +6.633E+04  -2.062E+04  -1.605E+05  +1.951E+06
 +9.67E+00  +5.93E+00  -5.729E+04  -9.371E+03  +1.616E+03  -5.057E+03  -4.335E+04  -2.148E+06  -3.514E+05  +6.058E+04  -1.896E+04  -1.626E+05  +1.999E+06
 +9.93E+00  +5.07E+00  -6.320E+04  -1.049E+04  +9.884E+02  -2.401E+03  -4.604E+04  -2.370E+06  -3.934E+05  +3.706E+04  -9.003E+03  -1.726E+05  +2.201E+06
 +9.93E+00  +5.33E+00  -6.513E+04  -1.082E+04  +8.978E+02  -2.196E+03  -4.676E+04  -2.443E+06  -4.056E+05  +3.367E+04  -8.235E+03  -1.754E+05  +2.268E+06
 +9.93E+00  +5.67E+00  -6.740E+04  -1.120E+04  +7.920E+02  -1.954E+03  -4.752E+04  -2.528E+06  -4.200E+05  +2.970E+04  -7.328E+03  -1.782E+05  +2.346E+06
 +9.93E+00  +5.93E+00  -6.896E+04  -1.146E+04  +7.208E+02  -1.790E+03  -4.799E+04  -2.586E+06  -4.299E+05  +2.703E+04  -6.713E+03  -1.799E+05  +2.401E+06

element # = 61     type =16-n plate
 XX         YY         MXX         MYY         MXY         QYZ         QZX         SIGXX       SIGYY       TAUXY       TAUXZ(Z=0)  TAUYZ(Z=0)   SIGV
 +6.94E-02  +6.07E+00  -6.974E+04  -1.159E+04  -6.867E+02  -1.711E+03  +4.820E+04  -2.615E+06  -4.348E+05  -2.575E+04  -6.414E+03  +1.807E+05  +2.428E+06
 +6.94E-02  +6.33E+00  -7.110E+04  -1.183E+04  -6.299E+02  -1.578E+03  +4.854E+04  -2.666E+06  -4.435E+05  -2.362E+04  -5.917E+03  +1.820E+05  +2.475E+06
 +6.94E-02  +6.67E+00  -7.272E+04  -1.210E+04  -5.713E+02  -1.437E+03  +4.891E+04  -2.727E+06  -4.538E+05  -2.142E+04  -5.387E+03  +1.834E+05  +2.531E+06
 +6.94E-02  +6.93E+00  -7.386E+04  -1.230E+04  -5.388E+02  -1.355E+03  +4.916E+04  -2.770E+06  -4.612E+05  -2.021E+04  -5.081E+03  +1.844E+05  +2.571E+06
 +3.30E-01  +6.07E+00  -5.800E+04  -9.501E+03  -1.542E+03  -4.840E+03  +4.361E+04  -2.175E+06  -3.563E+05  -5.781E+04  -1.815E+04  +1.635E+05  +2.023E+06
 +3.30E-01  +6.33E+00  -5.924E+04  -9.734E+03  -1.418E+03  -4.479E+03  +4.404E+04  -2.221E+06  -3.650E+05  -5.316E+04  -1.680E+04  +1.651E+05  +2.065E+06
 +3.30E-01  +6.67E+00  -6.072E+04  -1.002E+04  -1.287E+03  -4.083E+03  +4.453E+04  -2.277E+06  -3.756E+05  -4.826E+04  -1.531E+04  +1.670E+05  +2.116E+06
 +3.30E-01  +6.93E+00  -6.177E+04  -1.022E+04  -1.212E+03  -3.850E+03  +4.487E+04  -2.316E+06  -3.833E+05  -4.543E+04  -1.444E+04  +1.683E+05  +2.152E+06
 +6.70E-01  +6.07E+00  -4.374E+04  -6.848E+03  -2.707E+03  -4.374E+03  +4.166E+04  -1.640E+06  -2.568E+05  -1.015E+05  -1.640E+04  +1.562E+05  +1.538E+06
 +6.70E-01  +6.33E+00  -4.480E+04  -7.090E+03  -2.494E+03  -4.086E+03  +4.210E+04  -1.680E+06  -2.659E+05  -9.353E+04  -1.532E+04  +1.579E+05  +1.572E+06
 +6.70E-01  +6.67E+00  -4.607E+04  -7.391E+03  -2.265E+03  -3.741E+03  +4.260E+04  -1.727E+06  -2.772E+05  -8.492E+04  -1.403E+04  +1.597E+05  +1.614E+06
 +6.70E-01  +6.93E+00  -4.696E+04  -7.612E+03  -2.126E+03  -3.524E+03  +4.294E+04  -1.761E+06  -2.855E+05  -7.972E+04  -1.322E+04  +1.610E+05  +1.643E+06
 +9.31E-01  +6.07E+00  -3.362E+04  -4.855E+03  -3.629E+03  -3.749E+03  +3.711E+04  -1.261E+06  -1.821E+05  -1.361E+05  -1.406E+04  +1.391E+05  +1.204E+06
 +9.31E-01  +6.33E+00  -3.452E+04  -5.111E+03  -3.347E+03  -3.532E+03  +3.761E+04  -1.295E+06  -1.917E+05  -1.255E+05  -1.325E+04  +1.410E+05  +1.230E+06
 +9.31E-01  +6.67E+00  -3.560E+04  -5.434E+03  -3.038E+03  -3.248E+03  +3.820E+04  -1.335E+06  -2.038E+05  -1.139E+05  -1.218E+04  +1.432E+05  +1.261E+06
 +9.31E-01  +6.93E+00  -3.637E+04  -5.675E+03  -2.846E+03  -3.060E+03  +3.861E+04  -1.364E+06  -2.128E+05  -1.067E+05  -1.147E+04  +1.448E+05  +1.284E+06

element # = 62     type =16-n plate
 XX         YY         MXX         MYY         MXY         QYZ         QZX         SIGXX       SIGYY       TAUXY       TAUXZ(Z=0)  TAUYZ(Z=0)   SIGV
 +1.07E+00  +6.07E+00  -2.865E+04  -3.830E+03  -3.960E+03  -3.727E+03  +3.692E+04  -1.074E+06  -1.436E+05  -1.485E+05  -1.398E+04  +1.384E+05  +1.042E+06
 +1.07E+00  +6.33E+00  -2.946E+04  -4.095E+03  -3.655E+03  -3.521E+03  +3.742E+04  -1.105E+06  -1.536E+05  -1.370E+05  -1.321E+04  +1.403E+05  +1.063E+06
 +1.07E+00  +6.67E+00  -3.044E+04  -4.433E+03  -3.316E+03  -3.245E+03  +3.799E+04  -1.141E+06  -1.662E+05  -1.243E+05  -1.217E+04  +1.424E+05  +1.089E+06
 +1.07E+00  +6.93E+00  -3.112E+04  -4.685E+03  -3.102E+03  -3.059E+03  +3.838E+04  -1.167E+06  -1.757E+05  -1.163E+05  -1.147E+04  +1.439E+05  +1.108E+06
 +1.33E+00  +6.07E+00  -2.005E+04  -1.990E+03  -4.573E+03  -3.116E+03  +3.270E+04  -7.517E+05  -7.462E+04  -1.715E+05  -1.168E+04  +1.226E+05  +7.764E+05
 +1.33E+00  +6.33E+00  -2.069E+04  -2.274E+03  -4.223E+03  -2.978E+03  +3.319E+04  -7.758E+05  -8.526E+04  -1.584E+05  -1.117E+04  +1.245E+05  +7.863E+05
 +1.33E+00  +6.67E+00  -2.146E+04  -2.639E+03  -3.829E+03  -2.769E+03  +3.376E+04  -8.047E+05  -9.896E+04  -1.436E+05  -1.038E+04  +1.266E+05  +7.997E+05
 +1.33E+00  +6.93E+00  -2.200E+04  -2.915E+03  -3.575E+03  -2.622E+03  +3.415E+04  -8.250E+05  -1.093E+05  -1.341E+05  -9.833E+03  +1.280E+05  +8.101E+05
 +1.67E+00  +6.07E+00  -9.752E+03  +3.228E+02  -5.135E+03  -2.426E+03  +3.081E+04  -3.657E+05  +1.211E+04  -1.926E+05  -9.096E+03  +1.155E+05  +4.996E+05
 +1.67E+00  +6.33E+00  -1.017E+04  +1.253E+01  -4.745E+03  -2.369E+03  +3.130E+04  -3.815E+05  +4.698E+02  -1.779E+05  -8.882E+03  +1.174E+05  +4.906E+05
 +1.67E+00  +6.67E+00  -1.068E+04  -3.925E+02  -4.299E+03  -2.244E+03  +3.186E+04  -4.006E+05  -1.472E+04  -1.612E+05  -8.415E+03  +1.195E+05  +4.825E+05
 +1.67E+00  +6.93E+00  -1.104E+04  -7.029E+02  -4.007E+03  -2.151E+03  +3.223E+04  -4.141E+05  -2.636E+04  -1.502E+05  -8.068E+03  +1.209E+05  +4.785E+05
 +1.93E+00  +6.07E+00  -2.580E+03  +2.008E+03  -5.385E+03  -1.913E+03  +2.674E+04  -9.677E+04  +7.530E+04  -2.019E+05  -7.173E+03  +1.003E+05  +3.803E+05
 +1.93E+00  +6.33E+00  -2.834E+03  +1.678E+03  -4.978E+03  -1.918E+03  +2.721E+04  -1.063E+05  +6.292E+04  -1.867E+05  -7.191E+03  +1.020E+05  +3.556E+05
 +1.93E+00  +6.67E+00  -3.145E+03  +1.242E+03  -4.509E+03  -1.860E+03  +2.774E+04  -1.179E+05  +4.658E+04  -1.691E+05  -6.976E+03  +1.040E+05  +3.276E+05
 +1.93E+00  +6.93E+00  -3.366E+03  +9.048E+02  -4.198E+03  -1.816E+03  +2.808E+04  -1.262E+05  +3.393E+04  -1.574E+05  -6.808E+03  +1.053E+05  +3.094E+05

element # = 63     type =16-n plate
 XX         YY         MXX         MYY         MXY         QYZ         QZX         SIGXX       SIGYY       TAUXY       TAUXZ(Z=0)  TAUYZ(Z=0)   SIGV
 +2.07E+00  +6.07E+00  +8.877E+02  +2.853E+03  -5.460E+03  -1.641E+03  +2.649E+04  +3.329E+04  +1.070E+05  -2.048E+05  -6.154E+03  +9.933E+04  +3.671E+05
 +2.07E+00  +6.33E+00  +7.202E+02  +2.512E+03  -5.048E+03  -1.679E+03  +2.696E+04  +2.701E+04  +9.421E+04  -1.893E+05  -6.298E+03  +1.011E+05  +3.385E+05
 +2.07E+00  +6.67E+00  +5.112E+02  +2.060E+03  -4.572E+03  -1.659E+03  +2.748E+04  +1.917E+04  +7.725E+04  -1.715E+05  -6.220E+03  +1.031E+05  +3.050E+05
 +2.07E+00  +6.93E+00  +3.604E+02  +1.708E+03  -4.255E+03  -1.642E+03  +2.782E+04  +1.352E+04  +6.406E+04  -1.596E+05  -6.157E+03  +1.043E+05  +2.825E+05
 +2.33E+00  +6.07E+00  +6.769E+03  +4.337E+03  -5.485E+03  -1.169E+03  +2.274E+04  +2.538E+05  +1.626E+05  -2.057E+05  -4.383E+03  +8.526E+04  +4.202E+05
 +2.33E+00  +6.33E+00  +6.755E+03  +3.976E+03  -5.074E+03  -1.269E+03  +2.315E+04  +2.533E+05  +1.491E+05  -1.903E+05  -4.757E+03  +8.683E+04  +3.965E+05
 +2.33E+00  +6.67E+00  +6.727E+03  +3.493E+03  -4.596E+03  -1.313E+03  +2.362E+04  +2.523E+05  +1.310E+05  -1.723E+05  -4.923E+03  +8.858E+04  +3.699E+05
 +2.33E+00  +6.93E+00  +6.701E+03  +3.113E+03  -4.275E+03  -1.349E+03  +2.392E+04  +2.513E+05  +1.167E+05  -1.603E+05  -5.057E+03  +8.971E+04  +3.529E+05
 +2.67E+00  +6.07E+00  +1.364E+04  +6.126E+03  -5.320E+03  -5.937E+02  +2.091E+04  +5.116E+05  +2.297E+05  -1.995E+05  -2.226E+03  +7.840E+04  +5.625E+05
 +2.67E+00  +6.33E+00  +1.382E+04  +5.742E+03  -4.924E+03  -7.713E+02  +2.131E+04  +5.181E+05  +2.153E+05  -1.846E+05  -2.892E+03  +7.991E+04  +5.527E+05
 +2.67E+00  +6.67E+00  +1.401E+04  +5.219E+03  -4.461E+03  -8.962E+02  +2.175E+04  +5.253E+05  +1.957E+05  -1.673E+05  -3.361E+03  +8.158E+04  +5.435E+05
 +2.67E+00  +6.93E+00  +1.413E+04  +4.803E+03  -4.149E+03  -1.002E+03  +2.204E+04  +5.300E+05  +1.801E+05  -1.556E+05  -3.756E+03  +8.265E+04  +5.390E+05
 +2.93E+00  +6.07E+00  +1.830E+04  +7.371E+03  -5.047E+03  -1.888E+02  +1.729E+04  +6.862E+05  +2.764E+05  -1.892E+05  -7.080E+02  +6.482E+04  +6.819E+05
 +2.93E+00  +6.33E+00  +1.860E+04  +6.970E+03  -4.672E+03  -4.233E+02  +1.763E+04  +6.976E+05  +2.614E+05  -1.752E+05  -1.588E+03  +6.611E+04  +6.817E+05
 +2.93E+00  +6.67E+00  +1.895E+04  +6.419E+03  -4.235E+03  -6.053E+02  +1.801E+04  +7.106E+05  +2.407E+05  -1.588E+05  -2.270E+03  +6.753E+04  +6.837E+05
 +2.93E+00  +6.93E+00  +1.918E+04  +5.977E+03  -3.939E+03  -7.631E+02  +1.825E+04  +7.194E+05  +2.241E+05  -1.477E+05  -2.862E+03  +6.843E+04  +6.870E+05

element # = 64     type =16-n plate
 XX         YY         MXX         MYY         MXY         QYZ         QZX         SIGXX       SIGYY       TAUXY       TAUXZ(Z=0)  TAUYZ(Z=0)   SIGV
 +3.07E+00  +6.07E+00  +2.047E+04  +7.971E+03  -4.857E+03  +8.377E+00  +1.699E+04  +7.678E+05  +2.989E+05  -1.821E+05  +3.142E+01  +6.370E+04  +7.409E+05
 +3.07E+00  +6.33E+00  +2.084E+04  +7.562E+03  -4.497E+03  -2.548E+02  +1.733E+04  +7.816E+05  +2.836E+05  -1.687E+05  -9.554E+02  +6.499E+04  +7.450E+05
 +3.07E+00  +6.67E+00  +2.127E+04  +6.996E+03  -4.077E+03  -4.645E+02  +1.771E+04  +7.975E+05  +2.624E+05  -1.529E+05  -1.742E+03  +6.642E+04  +7.522E+05
 +3.07E+00  +6.93E+00  +2.155E+04  +6.540E+03  -3.793E+03  -6.489E+02  +1.796E+04  +8.083E+05  +2.453E+05  -1.422E+05  -2.433E+03  +6.733E+04  +7.589E+05
 +3.33E+00  +6.07E+00  +2.402E+04  +8.978E+03  -4.416E+03  +3.402E+02  +1.361E+04  +9.008E+05  +3.367E+05  -1.656E+05  +1.276E+03  +5.102E+04  +8.389E+05
 +3.33E+00  +6.33E+00  +2.449E+04  +8.553E+03  -4.091E+03  +2.764E+01  +1.388E+04  +9.186E+05  +3.207E+05  -1.534E+05  +1.036E+02  +5.205E+04  +8.501E+05
 +3.33E+00  +6.67E+00  +2.505E+04  +7.961E+03  -3.710E+03  -2.291E+02  +1.418E+04  +9.392E+05  +2.985E+05  -1.391E+05  -8.593E+02  +5.317E+04  +8.654E+05
 +3.33E+00  +6.93E+00  +2.542E+04  +7.481E+03  -3.452E+03  -4.596E+02  +1.437E+04  +9.533E+05  +2.805E+05  -1.295E+05  -1.723E+03  +5.388E+04  +8.777E+05
 +3.67E+00  +6.07E+00  +2.794E+04  +1.010E+04  -3.709E+03  +7.127E+02  +1.183E+04  +1.048E+06  +3.789E+05  -1.391E+05  +2.673E+03  +4.437E+04  +9.501E+05
 +3.67E+00  +6.33E+00  +2.854E+04  +9.662E+03  -3.438E+03  +3.435E+02  +1.208E+04  +1.070E+06  +3.623E+05  -1.289E+05  +1.288E+03  +4.532E+04  +9.689E+05
 +3.67E+00  +6.67E+00  +2.923E+04  +9.042E+03  -3.119E+03  +3.433E+01  +1.236E+04  +1.096E+06  +3.391E+05  -1.170E+05  +1.287E+02  +4.636E+04  +9.930E+05
 +3.67E+00  +6.93E+00  +2.971E+04  +8.534E+03  -2.904E+03  -2.493E+02  +1.254E+04  +1.114E+06  +3.200E+05  -1.089E+05  -9.349E+02  +4.703E+04  +1.011E+06
 +3.93E+00  +6.07E+00  +3.041E+04  +1.082E+04  -3.075E+03  +9.506E+02  +8.539E+03  +1.140E+06  +4.056E+05  -1.153E+05  +3.565E+03  +3.202E+04  +1.021E+06
 +3.93E+00  +6.33E+00  +3.109E+04  +1.036E+04  -2.851E+03  +5.449E+02  +8.717E+03  +1.166E+06  +3.887E+05  -1.069E+05  +2.043E+03  +3.269E+04  +1.045E+06
 +3.93E+00  +6.67E+00  +3.187E+04  +9.725E+03  -2.588E+03  +2.028E+02  +8.911E+03  +1.195E+06  +3.647E+05  -9.704E+04  +7.606E+02  +3.342E+04  +1.074E+06
 +3.93E+00  +6.93E+00  +3.242E+04  +9.200E+03  -2.409E+03  -1.150E+02  +9.032E+03  +1.216E+06  +3.450E+05  -9.036E+04  -4.314E+02  +3.387E+04  +1.096E+06

element # = 65     type =16-n plate
 XX         YY         MXX         MYY         MXY         QYZ         QZX         SIGXX       SIGYY       TAUXY       TAUXZ(Z=0)  TAUYZ(Z=0)   SIGV
 +4.07E+00  +6.07E+00  +3.146E+04  +1.113E+04  -2.714E+03  +1.054E+03  +8.213E+03  +1.180E+06  +4.173E+05  -1.018E+05  +3.954E+03  +3.080E+04  +1.051E+06
 +4.07E+00  +6.33E+00  +3.217E+04  +1.067E+04  -2.516E+03  +6.325E+02  +8.394E+03  +1.206E+06  +4.001E+05  -9.436E+04  +2.372E+03  +3.148E+04  +1.077E+06
 +4.07E+00  +6.67E+00  +3.300E+04  +1.002E+04  -2.284E+03  +2.760E+02  +8.594E+03  +1.237E+06  +3.759E+05  -8.567E+04  +1.035E+03  +3.223E+04  +1.109E+06
 +4.07E+00  +6.93E+00  +3.357E+04  +9.489E+03  -2.127E+03  -5.717E+01  +8.721E+03  +1.259E+06  +3.558E+05  -7.978E+04  -2.144E+02  +3.270E+04  +1.132E+06
 +4.33E+00  +6.07E+00  +3.294E+04  +1.158E+04  -1.991E+03  +1.205E+03  +5.044E+03  +1.235E+06  +4.343E+05  -7.467E+04  +4.518E+03  +1.892E+04  +1.093E+06
 +4.33E+00  +6.33E+00  +3.369E+04  +1.112E+04  -1.847E+03  +7.586E+02  +5.146E+03  +1.263E+06  +4.168E+05  -6.925E+04  +2.845E+03  +1.930E+04  +1.121E+06
 +4.33E+00  +6.67E+00  +3.458E+04  +1.045E+04  -1.677E+03  +3.808E+02  +5.255E+03  +1.297E+06  +3.920E+05  -6.288E+04  +1.428E+03  +1.970E+04  +1.157E+06
 +4.33E+00  +6.93E+00  +3.519E+04  +9.907E+03  -1.562E+03  +2.468E+01  +5.321E+03  +1.320E+06  +3.715E+05  -5.857E+04  +9.253E+01  +1.995E+04  +1.183E+06
 +4.67E+00  +6.07E+00  +3.421E+04  +1.196E+04  -9.995E+02  +1.333E+03  +3.305E+03  +1.283E+06  +4.486E+05  -3.748E+04  +4.999E+03  +1.239E+04  +1.129E+06
 +4.67E+00  +6.33E+00  +3.501E+04  +1.149E+04  -9.271E+02  +8.664E+02  +3.384E+03  +1.313E+06  +4.310E+05  -3.477E+04  +3.249E+03  +1.269E+04  +1.161E+06
 +4.67E+00  +6.67E+00  +3.594E+04  +1.082E+04  -8.421E+02  +4.709E+02  +3.473E+03  +1.348E+06  +4.058E+05  -3.158E+04  +1.766E+03  +1.302E+04  +1.199E+06
 +4.67E+00  +6.93E+00  +3.659E+04  +1.026E+04  -7.846E+02  +9.542E+01  +3.531E+03  +1.372E+06  +3.849E+05  -2.942E+04  +3.578E+02  +1.324E+04  +1.227E+06
 +4.93E+00  +6.07E+00  +3.469E+04  +1.210E+04  -2.101E+02  +1.379E+03  +1.674E+02  +1.301E+06  +4.536E+05  -7.878E+03  +5.171E+03  +6.278E+02  +1.144E+06
 +4.93E+00  +6.33E+00  +3.550E+04  +1.162E+04  -1.949E+02  +9.056E+02  +1.657E+02  +1.331E+06  +4.359E+05  -7.308E+03  +3.396E+03  +6.213E+02  +1.176E+06
 +4.93E+00  +6.67E+00  +3.645E+04  +1.095E+04  -1.770E+02  +5.042E+02  +1.622E+02  +1.367E+06  +4.106E+05  -6.638E+03  +1.891E+03  +6.081E+02  +1.215E+06
 +4.93E+00  +6.93E+00  +3.711E+04  +1.039E+04  -1.649E+02  +1.224E+02  +1.585E+02  +1.392E+06  +3.896E+05  -6.184E+03  +4.590E+02  +5.944E+02  +1.244E+06

element # = 66     type =16-n plate
 XX         YY         MXX         MYY         MXY         QYZ         QZX         SIGXX       SIGYY       TAUXY       TAUXZ(Z=0)  TAUYZ(Z=0)   SIGV
 +5.07E+00  +6.07E+00  +3.469E+04  +1.210E+04  +2.101E+02  +1.379E+03  -1.674E+02  +1.301E+06  +4.536E+05  +7.878E+03  +5.171E+03  -6.278E+02  +1.144E+06
 +5.07E+00  +6.33E+00  +3.550E+04  +1.162E+04  +1.949E+02  +9.056E+02  -1.657E+02  +1.331E+06  +4.359E+05  +7.308E+03  +3.396E+03  -6.213E+02  +1.176E+06
 +5.07E+00  +6.67E+00  +3.645E+04  +1.095E+04  +1.770E+02  +5.042E+02  -1.622E+02  +1.367E+06  +4.106E+05  +6.638E+03  +1.891E+03  -6.081E+02  +1.215E+06
 +5.07E+00  +6.93E+00  +3.711E+04  +1.039E+04  +1.649E+02  +1.224E+02  -1.585E+02  +1.392E+06  +3.896E+05  +6.184E+03  +4.590E+02  -5.944E+02  +1.244E+06
 +5.33E+00  +6.07E+00  +3.421E+04  +1.196E+04  +9.995E+02  +1.333E+03  -3.305E+03  +1.283E+06  +4.486E+05  +3.748E+04  +4.999E+03  -1.239E+04  +1.129E+06
 +5.33E+00  +6.33E+00  +3.501E+04  +1.149E+04  +9.271E+02  +8.664E+02  -3.384E+03  +1.313E+06  +4.310E+05  +3.477E+04  +3.249E+03  -1.269E+04  +1.161E+06
 +5.33E+00  +6.67E+00  +3.594E+04  +1.082E+04  +8.421E+02  +4.709E+02  -3.473E+03  +1.348E+06  +4.058E+05  +3.158E+04  +1.766E+03  -1.302E+04  +1.199E+06
 +5.33E+00  +6.93E+00  +3.659E+04  +1.026E+04  +7.846E+02  +9.542E+01  -3.531E+03  +1.372E+06  +3.849E+05  +2.942E+04  +3.578E+02  -1.324E+04  +1.227E+06
 +5.67E+00  +6.07E+00  +3.294E+04  +1.158E+04  +1.991E+03  +1.205E+03  -5.044E+03  +1.235E+06  +4.343E+05  +7.467E+04  +4.518E+03  -1.892E+04  +1.093E+06
 +5.67E+00  +6.33E+00  +3.369E+04  +1.112E+04  +1.847E+03  +7.586E+02  -5.146E+03  +1.263E+06  +4.168E+05  +6.925E+04  +2.845E+03  -1.930E+04  +1.121E+06
 +5.67E+00  +6.67E+00  +3.458E+04  +1.045E+04  +1.677E+03  +3.808E+02  -5.255E+03  +1.297E+06  +3.920E+05  +6.288E+04  +1.428E+03  -1.970E+04  +1.157E+06
 +5.67E+00  +6.93E+00  +3.519E+04  +9.907E+03  +1.562E+03  +2.468E+01  -5.321E+03  +1.320E+06  +3.715E+05  +5.857E+04  +9.253E+01  -1.995E+04  +1.183E+06
 +5.93E+00  +6.07E+00  +3.146E+04  +1.113E+04  +2.714E+03  +1.054E+03  -8.213E+03  +1.180E+06  +4.173E+05  +1.018E+05  +3.954E+03  -3.080E+04  +1.051E+06
 +5.93E+00  +6.33E+00  +3.217E+04  +1.067E+04  +2.516E+03  +6.325E+02  -8.394E+03  +1.206E+06  +4.001E+05  +9.436E+04  +2.372E+03  -3.148E+04  +1.077E+06
 +5.93E+00  +6.67E+00  +3.300E+04  +1.002E+04  +2.284E+03  +2.760E+02  -8.594E+03  +1.237E+06  +3.759E+05  +8.567E+04  +1.035E+03  -3.223E+04  +1.109E+06
 +5.93E+00  +6.93E+00  +3.357E+04  +9.489E+03  +2.127E+03  -5.717E+01  -8.721E+03  +1.259E+06  +3.558E+05  +7.978E+04  -2.144E+02  -3.270E+04  +1.132E+06

element # = 67     type =16-n plate
 XX         YY         MXX         MYY         MXY         QYZ         QZX         SIGXX       SIGYY       TAUXY       TAUXZ(Z=0)  TAUYZ(Z=0)   SIGV
 +6.07E+00  +6.07E+00  +3.041E+04  +1.082E+04  +3.075E+03  +9.506E+02  -8.539E+03  +1.140E+06  +4.056E+05  +1.153E+05  +3.565E+03  -3.202E+04  +1.021E+06
 +6.07E+00  +6.33E+00  +3.109E+04  +1.036E+04  +2.851E+03  +5.449E+02  -8.717E+03  +1.166E+06  +3.887E+05  +1.069E+05  +2.043E+03  -3.269E+04  +1.045E+06
 +6.07E+00  +6.67E+00  +3.187E+04  +9.725E+03  +2.588E+03  +2.028E+02  -8.911E+03  +1.195E+06  +3.647E+05  +9.704E+04  +7.606E+02  -3.342E+04  +1.074E+06
 +6.07E+00  +6.93E+00  +3.242E+04  +9.200E+03  +2.409E+03  -1.150E+02  -9.032E+03  +1.216E+06  +3.450E+05  +9.036E+04  -4.314E+02  -3.387E+04  +1.096E+06
 +6.33E+00  +6.07E+00  +2.794E+04  +1.010E+04  +3.709E+03  +7.127E+02  -1.183E+04  +1.048E+06  +3.789E+05  +1.391E+05  +2.673E+03  -4.437E+04  +9.501E+05
 +6.33E+00  +6.33E+00  +2.854E+04  +9.662E+03  +3.438E+03  +3.435E+02  -1.208E+04  +1.070E+06  +3.623E+05  +1.289E+05  +1.288E+03  -4.532E+04  +9.689E+05
 +6.33E+00  +6.67E+00  +2.923E+04  +9.042E+03  +3.119E+03  +3.433E+01  -1.236E+04  +1.096E+06  +3.391E+05  +1.170E+05  +1.287E+02  -4.636E+04  +9.930E+05
 +6.33E+00  +6.93E+00  +2.971E+04  +8.534E+03  +2.904E+03  -2.493E+02  -1.254E+04  +1.114E+06  +3.200E+05  +1.089E+05  -9.349E+02  -4.703E+04  +1.011E+06
 +6.67E+00  +6.07E+00  +2.402E+04  +8.978E+03  +4.416E+03  +3.402E+02  -1.361E+04  +9.008E+05  +3.367E+05  +1.656E+05  +1.276E+03  -5.102E+04  +8.389E+05
 +6.67E+00  +6.33E+00  +2.449E+04  +8.553E+03  +4.091E+03  +2.764E+01  -1.388E+04  +9.186E+05  +3.207E+05  +1.534E+05  +1.036E+02  -5.205E+04  +8.501E+05
 +6.67E+00  +6.67E+00  +2.505E+04  +7.961E+03  +3.710E+03  -2.291E+02  -1.418E+04  +9.392E+05  +2.985E+05  +1.391E+05  -8.593E+02  -5.317E+04  +8.654E+05
 +6.67E+00  +6.93E+00  +2.542E+04  +7.481E+03  +3.452E+03  -4.596E+02  -1.437E+04  +9.533E+05  +2.805E+05  +1.295E+05  -1.723E+03  -5.388E+04  +8.777E+05
 +6.93E+00  +6.07E+00  +2.047E+04  +7.971E+03  +4.857E+03  +8.377E+00  -1.699E+04  +7.678E+05  +2.989E+05  +1.821E+05  +3.142E+01  -6.370E+04  +7.409E+05
 +6.93E+00  +6.33E+00  +2.084E+04  +7.562E+03  +4.497E+03  -2.548E+02  -1.733E+04  +7.816E+05  +2.836E+05  +1.687E+05  -9.554E+02  -6.499E+04  +7.450E+05
 +6.93E+00  +6.67E+00  +2.127E+04  +6.996E+03  +4.077E+03  -4.645E+02  -1.771E+04  +7.975E+05  +2.624E+05  +1.529E+05  -1.742E+03  -6.642E+04  +7.522E+05
 +6.93E+00  +6.93E+00  +2.155E+04  +6.540E+03  +3.793E+03  -6.489E+02  -1.796E+04  +8.083E+05  +2.453E+05  +1.422E+05  -2.433E+03  -6.733E+04  +7.589E+05

element # = 68     type =16-n plate
 XX         YY         MXX         MYY         MXY         QYZ         QZX         SIGXX       SIGYY       TAUXY       TAUXZ(Z=0)  TAUYZ(Z=0)   SIGV
 +7.07E+00  +6.07E+00  +1.830E+04  +7.371E+03  +5.047E+03  -1.888E+02  -1.729E+04  +6.862E+05  +2.764E+05  +1.892E+05  -7.080E+02  -6.482E+04  +6.819E+05
 +7.07E+00  +6.33E+00  +1.860E+04  +6.970E+03  +4.672E+03  -4.233E+02  -1.763E+04  +6.976E+05  +2.614E+05  +1.752E+05  -1.588E+03  -6.611E+04  +6.817E+05
 +7.07E+00  +6.67E+00  +1.895E+04  +6.419E+03  +4.235E+03  -6.053E+02  -1.801E+04  +7.106E+05  +2.407E+05  +1.588E+05  -2.270E+03  -6.753E+04  +6.837E+05
 +7.07E+00  +6.93E+00  +1.918E+04  +5.977E+03  +3.939E+03  -7.631E+02  -1.825E+04  +7.194E+05  +2.241E+05  +1.477E+05  -2.862E+03  -6.843E+04  +6.870E+05
 +7.33E+00  +6.07E+00  +1.364E+04  +6.126E+03  +5.320E+03  -5.937E+02  -2.091E+04  +5.116E+05  +2.297E+05  +1.995E+05  -2.226E+03  -7.840E+04  +5.625E+05
 +7.33E+00  +6.33E+00  +1.382E+04  +5.742E+03  +4.924E+03  -7.713E+02  -2.131E+04  +5.181E+05  +2.153E+05  +1.846E+05  -2.892E+03  -7.991E+04  +5.527E+05
 +7.33E+00  +6.67E+00  +1.401E+04  +5.219E+03  +4.461E+03  -8.962E+02  -2.175E+04  +5.253E+05  +1.957E+05  +1.673E+05  -3.361E+03  -8.158E+04  +5.435E+05
 +7.33E+00  +6.93E+00  +1.413E+04  +4.803E+03  +4.149E+03  -1.002E+03  -2.204E+04  +5.300E+05  +1.801E+05  +1.556E+05  -3.756E+03  -8.265E+04  +5.390E+05
 +7.67E+00  +6.07E+00  +6.769E+03  +4.337E+03  +5.485E+03  -1.169E+03  -2.274E+04  +2.538E+05  +1.626E+05  +2.057E+05  -4.383E+03  -8.526E+04  +4.202E+05
 +7.67E+00  +6.33E+00  +6.755E+03  +3.976E+03  +5.074E+03  -1.269E+03  -2.315E+04  +2.533E+05  +1.491E+05  +1.903E+05  -4.757E+03  -8.683E+04  +3.965E+05
 +7.67E+00  +6.67E+00  +6.727E+03  +3.493E+03  +4.596E+03  -1.313E+03  -2.362E+04  +2.523E+05  +1.310E+05  +1.723E+05  -4.923E+03  -8.858E+04  +3.699E+05
 +7.67E+00  +6.93E+00  +6.701E+03  +3.113E+03  +4.275E+03  -1.349E+03  -2.392E+04  +2.513E+05  +1.167E+05  +1.603E+05  -5.057E+03  -8.971E+04  +3.529E+05
 +7.93E+00  +6.07E+00  +8.877E+02  +2.853E+03  +5.460E+03  -1.641E+03  -2.649E+04  +3.329E+04  +1.070E+05  +2.048E+05  -6.154E+03  -9.933E+04  +3.671E+05
 +7.93E+00  +6.33E+00  +7.202E+02  +2.512E+03  +5.048E+03  -1.679E+03  -2.696E+04  +2.701E+04  +9.421E+04  +1.893E+05  -6.298E+03  -1.011E+05  +3.385E+05
 +7.93E+00  +6.67E+00  +5.112E+02  +2.060E+03  +4.572E+03  -1.659E+03  -2.748E+04  +1.917E+04  +7.725E+04  +1.715E+05  -6.220E+03  -1.031E+05  +3.050E+05
 +7.93E+00  +6.93E+00  +3.604E+02  +1.708E+03  +4.255E+03  -1.642E+03  -2.782E+04  +1.352E+04  +6.406E+04  +1.596E+05  -6.157E+03  -1.043E+05  +2.825E+05

element # = 69     type =16-n plate
 XX         YY         MXX         MYY         MXY         QYZ         QZX         SIGXX       SIGYY       TAUXY       TAUXZ(Z=0)  TAUYZ(Z=0)   SIGV
 +8.07E+00  +6.07E+00  -2.580E+03  +2.008E+03  +5.385E+03  -1.913E+03  -2.674E+04  -9.677E+04  +7.530E+04  +2.019E+05  -7.173E+03  -1.003E+05  +3.803E+05
 +8.07E+00  +6.33E+00  -2.834E+03  +1.678E+03  +4.978E+03  -1.918E+03  -2.721E+04  -1.063E+05  +6.292E+04  +1.867E+05  -7.191E+03  -1.020E+05  +3.556E+05
 +8.07E+00  +6.67E+00  -3.145E+03  +1.242E+03  +4.509E+03  -1.860E+03  -2.774E+04  -1.179E+05  +4.658E+04  +1.691E+05  -6.976E+03  -1.040E+05  +3.276E+05
 +8.07E+00  +6.93E+00  -3.366E+03  +9.048E+02  +4.198E+03  -1.816E+03  -2.808E+04  -1.262E+05  +3.393E+04  +1.574E+05  -6.808E+03  -1.053E+05  +3.094E+05
 +8.33E+00  +6.07E+00  -9.752E+03  +3.228E+02  +5.135E+03  -2.426E+03  -3.081E+04  -3.657E+05  +1.211E+04  +1.926E+05  -9.096E+03  -1.155E+05  +4.996E+05
 +8.33E+00  +6.33E+00  -1.017E+04  +1.253E+01  +4.745E+03  -2.369E+03  -3.130E+04  -3.815E+05  +4.698E+02  +1.779E+05  -8.882E+03  -1.174E+05  +4.906E+05
 +8.33E+00  +6.67E+00  -1.068E+04  -3.925E+02  +4.299E+03  -2.244E+03  -3.186E+04  -4.006E+05  -1.472E+04  +1.612E+05  -8.415E+03  -1.195E+05  +4.825E+05
 +8.33E+00  +6.93E+00  -1.104E+04  -7.029E+02  +4.007E+03  -2.151E+03  -3.223E+04  -4.141E+05  -2.636E+04  +1.502E+05  -8.068E+03  -1.209E+05  +4.785E+05
 +8.67E+00  +6.07E+00  -2.005E+04  -1.990E+03  +4.573E+03  -3.116E+03  -3.270E+04  -7.517E+05  -7.462E+04  +1.715E+05  -1.168E+04  -1.226E+05  +7.764E+05
 +8.67E+00  +6.33E+00  -2.069E+04  -2.274E+03  +4.223E+03  -2.978E+03  -3.319E+04  -7.758E+05  -8.526E+04  +1.584E+05  -1.117E+04  -1.245E+05  +7.863E+05
 +8.67E+00  +6.67E+00  -2.146E+04  -2.639E+03  +3.829E+03  -2.769E+03  -3.376E+04  -8.047E+05  -9.896E+04  +1.436E+05  -1.038E+04  -1.266E+05  +7.997E+05
 +8.67E+00  +6.93E+00  -2.200E+04  -2.915E+03  +3.575E+03  -2.622E+03  -3.415E+04  -8.250E+05  -1.093E+05  +1.341E+05  -9.833E+03  -1.280E+05  +8.101E+05
 +8.93E+00  +6.07E+00  -2.865E+04  -3.830E+03  +3.960E+03  -3.727E+03  -3.692E+04  -1.074E+06  -1.436E+05  +1.485E+05  -1.398E+04  -1.384E+05  +1.042E+06
 +8.93E+00  +6.33E+00  -2.946E+04  -4.095E+03  +3.655E+03  -3.521E+03  -3.742E+04  -1.105E+06  -1.536E+05  +1.370E+05  -1.321E+04  -1.403E+05  +1.063E+06
 +8.93E+00  +6.67E+00  -3.044E+04  -4.433E+03  +3.316E+03  -3.245E+03  -3.799E+04  -1.141E+06  -1.662E+05  +1.243E+05  -1.217E+04  -1.424E+05  +1.089E+06
 +8.93E+00  +6.93E+00  -3.112E+04  -4.685E+03  +3.102E+03  -3.059E+03  -3.838E+04  -1.167E+06  -1.757E+05  +1.163E+05  -1.147E+04  -1.439E+05  +1.108E+06

element # = 70     type =16-n plate
 XX         YY         MXX         MYY         MXY         QYZ         QZX         SIGXX       SIGYY       TAUXY       TAUXZ(Z=0)  TAUYZ(Z=0)   SIGV
 +9.07E+00  +6.07E+00  -3.362E+04  -4.855E+03  +3.629E+03  -3.749E+03  -3.711E+04  -1.261E+06  -1.821E+05  +1.361E+05  -1.406E+04  -1.391E+05  +1.204E+06
 +9.07E+00  +6.33E+00  -3.452E+04  -5.111E+03  +3.347E+03  -3.532E+03  -3.761E+04  -1.295E+06  -1.917E+05  +1.255E+05  -1.325E+04  -1.410E+05  +1.230E+06
 +9.07E+00  +6.67E+00  -3.560E+04  -5.434E+03  +3.038E+03  -3.248E+03  -3.820E+04  -1.335E+06  -2.038E+05  +1.139E+05  -1.218E+04  -1.432E+05  +1.261E+06
 +9.07E+00  +6.93E+00  -3.637E+04  -5.675E+03  +2.846E+03  -3.060E+03  -3.861E+04  -1.364E+06  -2.128E+05  +1.067E+05  -1.147E+04  -1.448E+05  +1.284E+06
 +9.33E+00  +6.07E+00  -4.374E+04  -6.848E+03  +2.707E+03  -4.374E+03  -4.166E+04  -1.640E+06  -2.568E+05  +1.015E+05  -1.640E+04  -1.562E+05  +1.538E+06
 +9.33E+00  +6.33E+00  -4.480E+04  -7.090E+03  +2.494E+03  -4.086E+03  -4.210E+04  -1.680E+06  -2.659E+05  +9.353E+04  -1.532E+04  -1.579E+05  +1.572E+06
 +9.33E+00  +6.67E+00  -4.607E+04  -7.391E+03  +2.265E+03  -3.741E+03  -4.260E+04  -1.727E+06  -2.772E+05  +8.492E+04  -1.403E+04  -1.597E+05  +1.614E+06
 +9.33E+00  +6.93E+00  -4.696E+04  -7.612E+03  +2.126E+03  -3.524E+03  -4.294E+04  -1.761E+06  -2.855E+05  +7.972E+04  -1.322E+04  -1.610E+05  +1.643E+06
 +9.67E+00  +6.07E+00  -5.800E+04  -9.501E+03  +1.542E+03  -4.840E+03  -4.361E+04  -2.175E+06  -3.563E+05  +5.781E+04  -1.815E+04  -1.635E+05  +2.023E+06
 +9.67E+00  +6.33E+00  -5.924E+04  -9.734E+03  +1.418E+03  -4.479E+03  -4.404E+04  -2.221E+06  -3.650E+05  +5.316E+04  -1.680E+04  -1.651E+05  +2.065E+06
 +9.67E+00  +6.67E+00  -6.072E+04  -1.002E+04  +1.287E+03  -4.083E+03  -4.453E+04  -2.277E+06  -3.756E+05  +4.826E+04  -1.531E+04  -1.670E+05  +2.116E+06
 +9.67E+00  +6.93E+00  -6.177E+04  -1.022E+04  +1.212E+03  -3.850E+03  -4.487E+04  -2.316E+06  -3.833E+05  +4.543E+04  -1.444E+04  -1.683E+05  +2.152E+06
 +9.93E+00  +6.07E+00  -6.974E+04  -1.159E+04  +6.867E+02  -1.711E+03  -4.820E+04  -2.615E+06  -4.348E+05  +2.575E+04  -6.414E+03  -1.807E+05  +2.428E+06
 +9.93E+00  +6.33E+00  -7.110E+04  -1.183E+04  +6.299E+02  -1.578E+03  -4.854E+04  -2.666E+06  -4.435E+05  +2.362E+04  -5.917E+03  -1.820E+05  +2.475E+06
 +9.93E+00  +6.67E+00  -7.272E+04  -1.210E+04  +5.713E+02  -1.437E+03  -4.891E+04  -2.727E+06  -4.538E+05  +2.142E+04  -5.387E+03  -1.834E+05  +2.531E+06
 +9.93E+00  +6.93E+00  -7.386E+04  -1.230E+04  +5.388E+02  -1.355E+03  -4.916E+04  -2.770E+06  -4.612E+05  +2.021E+04  -5.081E+03  -1.844E+05  +2.571E+06

element # = 71     type =16-n plate
 XX         YY         MXX         MYY         MXY         QYZ         QZX         SIGXX       SIGYY       TAUXY       TAUXZ(Z=0)  TAUYZ(Z=0)   SIGV
 +6.94E-02  +7.07E+00  -7.445E+04  -1.240E+04  -5.269E+02  -1.320E+03  +4.930E+04  -2.792E+06  -4.650E+05  -1.976E+04  -4.948E+03  +1.849E+05  +2.591E+06
 +6.94E-02  +7.33E+00  -7.552E+04  -1.258E+04  -5.126E+02  -1.276E+03  +4.957E+04  -2.832E+06  -4.719E+05  -1.922E+04  -4.784E+03  +1.859E+05  +2.628E+06
 +6.94E-02  +7.67E+00  -7.689E+04  -1.282E+04  -5.157E+02  -1.244E+03  +5.005E+04  -2.884E+06  -4.808E+05  -1.934E+04  -4.665E+03  +1.877E+05  +2.676E+06
 +6.94E-02  +7.93E+00  -7.796E+04  -1.301E+04  -5.353E+02  -1.244E+03  +5.058E+04  -2.924E+06  -4.878E+05  -2.007E+04  -4.663E+03  +1.897E+05  +2.713E+06
 +3.30E-01  +7.07E+00  -6.230E+04  -1.033E+04  -1.181E+03  -3.743E+03  +4.505E+04  -2.336E+06  -3.872E+05  -4.429E+04  -1.404E+04  +1.689E+05  +2.170E+06
 +3.30E-01  +7.33E+00  -6.326E+04  -1.052E+04  -1.141E+03  -3.595E+03  +4.540E+04  -2.372E+06  -3.945E+05  -4.277E+04  -1.348E+04  +1.703E+05  +2.203E+06
 +3.30E-01  +7.67E+00  -6.447E+04  -1.076E+04  -1.123E+03  -3.450E+03  +4.595E+04  -2.418E+06  -4.036E+05  -4.212E+04  -1.294E+04  +1.723E+05  +2.245E+06
 +3.30E-01  +7.93E+00  -6.537E+04  -1.095E+04  -1.136E+03  -3.371E+03  +4.646E+04  -2.451E+06  -4.105E+05  -4.258E+04  -1.264E+04  +1.742E+05  +2.275E+06
 +6.70E-01  +7.07E+00  -4.742E+04  -7.727E+03  -2.064E+03  -3.413E+03  +4.313E+04  -1.778E+06  -2.897E+05  -7.742E+04  -1.280E+04  +1.617E+05  +1.658E+06
 +6.70E-01  +7.33E+00  -4.823E+04  -7.939E+03  -1.978E+03  -3.218E+03  +4.348E+04  -1.809E+06  -2.977E+05  -7.416E+04  -1.207E+04  +1.631E+05  +1.684E+06
 +6.70E-01  +7.67E+00  -4.921E+04  -8.195E+03  -1.906E+03  -2.963E+03  +4.401E+04  -1.845E+06  -3.073E+05  -7.148E+04  -1.111E+04  +1.650E+05  +1.717E+06
 +6.70E-01  +7.93E+00  -4.991E+04  -8.374E+03  -1.880E+03  -2.713E+03  +4.452E+04  -1.872E+06  -3.140E+05  -7.050E+04  -1.017E+04  +1.670E+05  +1.740E+06
 +9.31E-01  +7.07E+00  -3.675E+04  -5.800E+03  -2.759E+03  -2.960E+03  +3.881E+04  -1.378E+06  -2.175E+05  -1.035E+05  -1.110E+04  +1.456E+05  +1.296E+06
 +9.31E-01  +7.33E+00  -3.743E+04  -6.031E+03  -2.626E+03  -2.738E+03  +3.920E+04  -1.404E+06  -2.262E+05  -9.847E+04  -1.027E+04  +1.470E+05  +1.316E+06
 +9.31E-01  +7.67E+00  -3.824E+04  -6.300E+03  -2.501E+03  -2.456E+03  +3.971E+04  -1.434E+06  -2.363E+05  -9.380E+04  -9.209E+03  +1.489E+05  +1.341E+06
 +9.31E-01  +7.93E+00  -3.881E+04  -6.483E+03  -2.439E+03  -2.130E+03  +4.009E+04  -1.455E+06  -2.431E+05  -9.147E+04  -7.988E+03  +1.503E+05  +1.360E+06

element # = 72     type =16-n plate
 XX         YY         MXX         MYY         MXY         QYZ         QZX         SIGXX       SIGYY       TAUXY       TAUXZ(Z=0)  TAUYZ(Z=0)   SIGV
 +1.07E+00  +7.07E+00  -3.146E+04  -4.817E+03  -3.004E+03  -2.963E+03  +3.858E+04  -1.180E+06  -1.806E+05  -1.126E+05  -1.111E+04  +1.447E+05  +1.118E+06
 +1.07E+00  +7.33E+00  -3.207E+04  -5.059E+03  -2.850E+03  -2.730E+03  +3.895E+04  -1.203E+06  -1.897E+05  -1.069E+05  -1.024E+04  +1.461E+05  +1.135E+06
 +1.07E+00  +7.67E+00  -3.279E+04  -5.339E+03  -2.699E+03  -2.454E+03  +3.942E+04  -1.230E+06  -2.002E+05  -1.012E+05  -9.204E+03  +1.478E+05  +1.156E+06
 +1.07E+00  +7.93E+00  -3.328E+04  -5.526E+03  -2.620E+03  -2.124E+03  +3.979E+04  -1.248E+06  -2.072E+05  -9.827E+04  -7.965E+03  +1.492E+05  +1.171E+06
 +1.33E+00  +7.07E+00  -2.227E+04  -3.061E+03  -3.455E+03  -2.545E+03  +3.434E+04  -8.352E+05  -1.148E+05  -1.296E+05  -9.545E+03  +1.288E+05  +8.157E+05
 +1.33E+00  +7.33E+00  -2.275E+04  -3.325E+03  -3.265E+03  -2.324E+03  +3.467E+04  -8.532E+05  -1.247E+05  -1.224E+05  -8.713E+03  +1.300E+05  +8.258E+05
 +1.33E+00  +7.67E+00  -2.331E+04  -3.630E+03  -3.069E+03  -2.077E+03  +3.507E+04  -8.742E+05  -1.361E+05  -1.151E+05  -7.788E+03  +1.315E+05  +8.388E+05
 +1.33E+00  +7.93E+00  -2.370E+04  -3.835E+03  -2.958E+03  -1.749E+03  +3.537E+04  -8.888E+05  -1.438E+05  -1.109E+05  -6.559E+03  +1.326E+05  +8.484E+05
 +1.67E+00  +7.07E+00  -1.122E+04  -8.664E+02  -3.868E+03  -2.104E+03  +3.241E+04  -4.208E+05  -3.249E+04  -1.450E+05  -7.889E+03  +1.215E+05  +4.771E+05
 +1.67E+00  +7.33E+00  -1.154E+04  -1.165E+03  -3.640E+03  -1.915E+03  +3.272E+04  -4.327E+05  -4.368E+04  -1.365E+05  -7.182E+03  +1.227E+05  +4.755E+05
 +1.67E+00  +7.67E+00  -1.191E+04  -1.514E+03  -3.404E+03  -1.737E+03  +3.307E+04  -4.465E+05  -5.678E+04  -1.277E+05  -6.513E+03  +1.240E+05  +4.755E+05
 +1.67E+00  +7.93E+00  -1.217E+04  -1.753E+03  -3.271E+03  -1.457E+03  +3.329E+04  -4.562E+05  -6.572E+04  -1.227E+05  -5.463E+03  +1.248E+05  +4.771E+05
 +1.93E+00  +7.07E+00  -3.477E+03  +7.257E+02  -4.049E+03  -1.789E+03  +2.825E+04  -1.304E+05  +2.722E+04  -1.518E+05  -6.709E+03  +1.059E+05  +3.008E+05
 +1.93E+00  +7.33E+00  -3.673E+03  +3.985E+02  -3.804E+03  -1.648E+03  +2.852E+04  -1.377E+05  +1.494E+04  -1.426E+05  -6.180E+03  +1.070E+05  +2.869E+05
 +1.93E+00  +7.67E+00  -3.905E+03  +5.015E+00  -3.550E+03  -1.527E+03  +2.880E+04  -1.464E+05  +1.881E+02  -1.331E+05  -5.727E+03  +1.080E+05  +2.732E+05
 +1.93E+00  +7.93E+00  -4.066E+03  -2.712E+02  -3.410E+03  -1.309E+03  +2.898E+04  -1.525E+05  -1.017E+04  -1.279E+05  -4.910E+03  +1.087E+05  +2.662E+05

element # = 73     type =16-n plate
 XX         YY         MXX         MYY         MXY         QYZ         QZX         SIGXX       SIGYY       TAUXY       TAUXZ(Z=0)  TAUYZ(Z=0)   SIGV
 +2.07E+00  +7.07E+00  +2.835E+02  +1.520E+03  -4.104E+03  -1.626E+03  +2.799E+04  +1.063E+04  +5.702E+04  -1.539E+05  -6.099E+03  +1.050E+05  +2.717E+05
 +2.07E+00  +7.33E+00  +1.484E+02  +1.176E+03  -3.853E+03  -1.516E+03  +2.826E+04  +5.564E+03  +4.412E+04  -1.445E+05  -5.684E+03  +1.060E+05  +2.537E+05
 +2.07E+00  +7.67E+00  -1.141E+01  +7.565E+02  -3.594E+03  -1.425E+03  +2.853E+04  -4.280E+02  +2.837E+04  -1.348E+05  -5.345E+03  +1.070E+05  +2.352E+05
 +2.07E+00  +7.93E+00  -1.281E+02  +4.556E+02  -3.451E+03  -1.244E+03  +2.869E+04  -4.804E+03  +1.709E+04  -1.294E+05  -4.665E+03  +1.076E+05  +2.250E+05
 +2.33E+00  +7.07E+00  +6.686E+03  +2.909E+03  -4.122E+03  -1.354E+03  +2.406E+04  +2.507E+05  +1.091E+05  -1.546E+05  -5.077E+03  +9.024E+04  +3.451E+05
 +2.33E+00  +7.33E+00  +6.659E+03  +2.531E+03  -3.867E+03  -1.301E+03  +2.429E+04  +2.497E+05  +9.490E+04  -1.450E+05  -4.877E+03  +9.108E+04  +3.328E+05
 +2.33E+00  +7.67E+00  +6.626E+03  +2.057E+03  -3.607E+03  -1.268E+03  +2.451E+04  +2.485E+05  +7.714E+04  -1.353E+05  -4.757E+03  +9.191E+04  +3.216E+05
 +2.33E+00  +7.93E+00  +6.599E+03  +1.709E+03  -3.466E+03  -1.156E+03  +2.464E+04  +2.475E+05  +6.410E+04  -1.300E+05  -4.333E+03  +9.238E+04  +3.165E+05
 +2.67E+00  +7.07E+00  +1.419E+04  +4.577E+03  -4.000E+03  -1.030E+03  +2.217E+04  +5.323E+05  +1.716E+05  -1.500E+05  -3.864E+03  +8.315E+04  +5.375E+05
 +2.67E+00  +7.33E+00  +1.430E+04  +4.153E+03  -3.752E+03  -1.059E+03  +2.238E+04  +5.362E+05  +1.557E+05  -1.407E+05  -3.971E+03  +8.393E+04  +5.364E+05
 +2.67E+00  +7.67E+00  +1.442E+04  +3.605E+03  -3.501E+03  -1.095E+03  +2.258E+04  +5.408E+05  +1.352E+05  -1.313E+05  -4.105E+03  +8.467E+04  +5.379E+05
 +2.67E+00  +7.93E+00  +1.450E+04  +3.188E+03  -3.368E+03  -1.075E+03  +2.269E+04  +5.439E+05  +1.196E+05  -1.263E+05  -4.030E+03  +8.507E+04  +5.412E+05
 +2.93E+00  +7.07E+00  +1.930E+04  +5.735E+03  -3.798E+03  -8.080E+02  +1.836E+04  +7.237E+05  +2.151E+05  -1.424E+05  -3.030E+03  +6.884E+04  +6.894E+05
 +2.93E+00  +7.33E+00  +1.950E+04  +5.275E+03  -3.563E+03  -8.977E+02  +1.853E+04  +7.312E+05  +1.978E+05  -1.336E+05  -3.366E+03  +6.948E+04  +6.948E+05
 +2.93E+00  +7.67E+00  +1.973E+04  +4.669E+03  -3.327E+03  -9.811E+02  +1.869E+04  +7.400E+05  +1.751E+05  -1.248E+05  -3.679E+03  +7.007E+04  +7.038E+05
 +2.93E+00  +7.93E+00  +1.989E+04  +4.201E+03  -3.203E+03  -1.027E+03  +1.877E+04  +7.460E+05  +1.575E+05  -1.201E+05  -3.853E+03  +7.038E+04  +7.121E+05

element # = 74     type =16-n plate
 XX         YY         MXX         MYY         MXY         QYZ         QZX         SIGXX       SIGYY       TAUXY       TAUXZ(Z=0)  TAUYZ(Z=0)   SIGV
 +3.07E+00  +7.07E+00  +2.170E+04  +6.290E+03  -3.657E+03  -7.016E+02  +1.807E+04  +8.136E+05  +2.359E+05  -1.371E+05  -2.631E+03  +6.775E+04  +7.629E+05
 +3.07E+00  +7.33E+00  +2.194E+04  +5.812E+03  -3.432E+03  -8.218E+02  +1.824E+04  +8.228E+05  +2.179E+05  -1.287E+05  -3.082E+03  +6.840E+04  +7.713E+05
 +3.07E+00  +7.67E+00  +2.223E+04  +5.176E+03  -3.205E+03  -9.282E+02  +1.840E+04  +8.336E+05  +1.941E+05  -1.202E+05  -3.481E+03  +6.900E+04  +7.837E+05
 +3.07E+00  +7.93E+00  +2.243E+04  +4.681E+03  -3.088E+03  -1.007E+03  +1.849E+04  +8.412E+05  +1.755E+05  -1.158E+05  -3.776E+03  +6.933E+04  +7.944E+05
 +3.33E+00  +7.07E+00  +2.561E+04  +7.215E+03  -3.329E+03  -5.250E+02  +1.445E+04  +9.603E+05  +2.706E+05  -1.248E+05  -1.969E+03  +5.420E+04  +8.845E+05
 +3.33E+00  +7.33E+00  +2.593E+04  +6.703E+03  -3.125E+03  -6.989E+02  +1.458E+04  +9.724E+05  +2.514E+05  -1.172E+05  -2.621E+03  +5.468E+04  +8.975E+05
 +3.33E+00  +7.67E+00  +2.631E+04  +6.014E+03  -2.921E+03  -8.433E+02  +1.470E+04  +9.867E+05  +2.255E+05  -1.095E+05  -3.162E+03  +5.511E+04  +9.154E+05
 +3.33E+00  +7.93E+00  +2.658E+04  +5.470E+03  -2.816E+03  -9.790E+02  +1.475E+04  +9.968E+05  +2.051E+05  -1.056E+05  -3.671E+03  +5.532E+04  +9.299E+05
 +3.67E+00  +7.07E+00  +2.995E+04  +8.251E+03  -2.801E+03  -3.290E+02  +1.262E+04  +1.123E+06  +3.094E+05  -1.050E+05  -1.234E+03  +4.733E+04  +1.021E+06
 +3.67E+00  +7.33E+00  +3.036E+04  +7.699E+03  -2.630E+03  -5.636E+02  +1.275E+04  +1.138E+06  +2.887E+05  -9.864E+04  -2.113E+03  +4.780E+04  +1.039E+06
 +3.67E+00  +7.67E+00  +3.085E+04  +6.947E+03  -2.461E+03  -7.503E+02  +1.286E+04  +1.157E+06  +2.605E+05  -9.228E+04  -2.814E+03  +4.823E+04  +1.063E+06
 +3.67E+00  +7.93E+00  +3.119E+04  +6.347E+03  -2.374E+03  -9.485E+02  +1.293E+04  +1.170E+06  +2.380E+05  -8.902E+04  -3.557E+03  +4.847E+04  +1.082E+06
 +3.93E+00  +7.07E+00  +3.268E+04  +8.906E+03  -2.324E+03  -2.036E+02  +9.087E+03  +1.226E+06  +3.340E+05  -8.717E+04  -7.634E+02  +3.408E+04  +1.108E+06
 +3.93E+00  +7.33E+00  +3.316E+04  +8.329E+03  -2.184E+03  -4.766E+02  +9.168E+03  +1.243E+06  +3.124E+05  -8.188E+04  -1.787E+03  +3.438E+04  +1.129E+06
 +3.93E+00  +7.67E+00  +3.371E+04  +7.537E+03  -2.044E+03  -6.895E+02  +9.238E+03  +1.264E+06  +2.826E+05  -7.665E+04  -2.585E+03  +3.464E+04  +1.157E+06
 +3.93E+00  +7.93E+00  +3.411E+04  +6.901E+03  -1.973E+03  -9.265E+02  +9.273E+03  +1.279E+06  +2.588E+05  -7.398E+04  -3.474E+03  +3.477E+04  +1.178E+06

element # = 75     type =16-n plate
 XX         YY         MXX         MYY         MXY         QYZ         QZX         SIGXX       SIGYY       TAUXY       TAUXZ(Z=0)  TAUYZ(Z=0)   SIGV
 +4.07E+00  +7.07E+00  +3.385E+04  +9.189E+03  -2.053E+03  -1.495E+02  +8.779E+03  +1.269E+06  +3.446E+05  -7.697E+04  -5.606E+02  +3.292E+04  +1.145E+06
 +4.07E+00  +7.33E+00  +3.434E+04  +8.602E+03  -1.928E+03  -4.396E+02  +8.869E+03  +1.288E+06  +3.226E+05  -7.232E+04  -1.648E+03  +3.326E+04  +1.167E+06
 +4.07E+00  +7.67E+00  +3.493E+04  +7.791E+03  -1.805E+03  -6.640E+02  +8.953E+03  +1.310E+06  +2.922E+05  -6.771E+04  -2.490E+03  +3.357E+04  +1.197E+06
 +4.07E+00  +7.93E+00  +3.535E+04  +7.139E+03  -1.743E+03  -9.183E+02  +9.000E+03  +1.326E+06  +2.677E+05  -6.536E+04  -3.444E+03  +3.375E+04  +1.219E+06
 +4.33E+00  +7.07E+00  +3.549E+04  +9.600E+03  -1.507E+03  -7.327E+01  +5.350E+03  +1.331E+06  +3.600E+05  -5.652E+04  -2.748E+02  +2.006E+04  +1.196E+06
 +4.33E+00  +7.33E+00  +3.602E+04  +8.994E+03  -1.416E+03  -3.889E+02  +5.391E+03  +1.351E+06  +3.373E+05  -5.311E+04  -1.459E+03  +2.022E+04  +1.221E+06
 +4.33E+00  +7.67E+00  +3.665E+04  +8.155E+03  -1.326E+03  -6.305E+02  +5.423E+03  +1.375E+06  +3.058E+05  -4.974E+04  -2.364E+03  +2.034E+04  +1.253E+06
 +4.33E+00  +7.93E+00  +3.710E+04  +7.477E+03  -1.281E+03  -9.107E+02  +5.436E+03  +1.391E+06  +2.804E+05  -4.803E+04  -3.415E+03  +2.038E+04  +1.277E+06
 +4.67E+00  +7.07E+00  +3.691E+04  +9.950E+03  -7.571E+02  -7.211E+00  +3.558E+03  +1.384E+06  +3.731E+05  -2.839E+04  -2.704E+01  +1.334E+04  +1.241E+06
 +4.67E+00  +7.33E+00  +3.747E+04  +9.329E+03  -7.117E+02  -3.442E+02  +3.601E+03  +1.405E+06  +3.498E+05  -2.669E+04  -1.291E+03  +1.350E+04  +1.268E+06
 +4.67E+00  +7.67E+00  +3.814E+04  +8.467E+03  -6.667E+02  -5.998E+02  +3.644E+03  +1.430E+06  +3.175E+05  -2.500E+04  -2.249E+03  +1.367E+04  +1.302E+06
 +4.67E+00  +7.93E+00  +3.862E+04  +7.768E+03  -6.440E+02  -9.013E+02  +3.671E+03  +1.448E+06  +2.913E+05  -2.415E+04  -3.380E+03  +1.377E+04  +1.327E+06
 +4.93E+00  +7.07E+00  +3.744E+04  +1.007E+04  -1.591E+02  +1.817E+01  +1.562E+02  +1.404E+06  +3.778E+05  -5.968E+03  +6.813E+01  +5.857E+02  +1.258E+06
 +4.93E+00  +7.33E+00  +3.802E+04  +9.449E+03  -1.496E+02  -3.256E+02  +1.508E+02  +1.426E+06  +3.543E+05  -5.610E+03  -1.221E+03  +5.657E+02  +1.286E+06
 +4.93E+00  +7.67E+00  +3.870E+04  +8.580E+03  -1.402E+02  -5.858E+02  +1.422E+02  +1.451E+06  +3.217E+05  -5.256E+03  -2.197E+03  +5.334E+02  +1.320E+06
 +4.93E+00  +7.93E+00  +3.919E+04  +7.875E+03  -1.353E+02  -8.938E+02  +1.348E+02  +1.470E+06  +2.953E+05  -5.076E+03  -3.352E+03  +5.054E+02  +1.347E+06

element # = 76     type =16-n plate
 XX         YY         MXX         MYY         MXY         QYZ         QZX         SIGXX       SIGYY       TAUXY       TAUXZ(Z=0)  TAUYZ(Z=0)   SIGV
 +5.07E+00  +7.07E+00  +3.744E+04  +1.007E+04  +1.591E+02  +1.817E+01  -1.562E+02  +1.404E+06  +3.778E+05  +5.968E+03  +6.813E+01  -5.857E+02  +1.258E+06
 +5.07E+00  +7.33E+00  +3.802E+04  +9.449E+03  +1.496E+02  -3.256E+02  -1.508E+02  +1.426E+06  +3.543E+05  +5.610E+03  -1.221E+03  -5.657E+02  +1.286E+06
 +5.07E+00  +7.67E+00  +3.870E+04  +8.580E+03  +1.402E+02  -5.858E+02  -1.422E+02  +1.451E+06  +3.217E+05  +5.256E+03  -2.197E+03  -5.334E+02  +1.320E+06
 +5.07E+00  +7.93E+00  +3.919E+04  +7.875E+03  +1.353E+02  -8.938E+02  -1.348E+02  +1.470E+06  +2.953E+05  +5.076E+03  -3.352E+03  -5.054E+02  +1.347E+06
 +5.33E+00  +7.07E+00  +3.691E+04  +9.950E+03  +7.571E+02  -7.211E+00  -3.558E+03  +1.384E+06  +3.731E+05  +2.839E+04  -2.704E+01  -1.334E+04  +1.241E+06
 +5.33E+00  +7.33E+00  +3.747E+04  +9.329E+03  +7.117E+02  -3.442E+02  -3.601E+03  +1.405E+06  +3.498E+05  +2.669E+04  -1.291E+03  -1.350E+04  +1.268E+06
 +5.33E+00  +7.67E+00  +3.814E+04  +8.467E+03  +6.667E+02  -5.998E+02  -3.644E+03  +1.430E+06  +3.175E+05  +2.500E+04  -2.249E+03  -1.367E+04  +1.302E+06
 +5.33E+00  +7.93E+00  +3.862E+04  +7.768E+03  +6.440E+02  -9.013E+02  -3.671E+03  +1.448E+06  +2.913E+05  +2.415E+04  -3.380E+03  -1.377E+04  +1.327E+06
 +5.67E+00  +7.07E+00  +3.549E+04  +9.600E+03  +1.507E+03  -7.327E+01  -5.350E+03  +1.331E+06  +3.600E+05  +5.652E+04  -2.748E+02  -2.006E+04  +1.196E+06
 +5.67E+00  +7.33E+00  +3.602E+04  +8.994E+03  +1.416E+03  -3.889E+02  -5.391E+03  +1.351E+06  +3.373E+05  +5.311E+04  -1.459E+03  -2.022E+04  +1.221E+06
 +5.67E+00  +7.67E+00  +3.665E+04  +8.155E+03  +1.326E+03  -6.305E+02  -5.423E+03  +1.375E+06  +3.058E+05  +4.974E+04  -2.364E+03  -2.034E+04  +1.253E+06
 +5.67E+00  +7.93E+00  +3.710E+04  +7.477E+03  +1.281E+03  -9.107E+02  -5.436E+03  +1.391E+06  +2.804E+05  +4.803E+04  -3.415E+03  -2.038E+04  +1.277E+06
 +5.93E+00  +7.07E+00  +3.385E+04  +9.189E+03  +2.053E+03  -1.495E+02  -8.779E+03  +1.269E+06  +3.446E+05  +7.697E+04  -5.606E+02  -3.292E+04  +1.145E+06
 +5.93E+00  +7.33E+00  +3.434E+04  +8.602E+03  +1.928E+03  -4.396E+02  -8.869E+03  +1.288E+06  +3.226E+05  +7.232E+04  -1.648E+03  -3.326E+04  +1.167E+06
 +5.93E+00  +7.67E+00  +3.493E+04  +7.791E+03  +1.805E+03  -6.640E+02  -8.953E+03  +1.310E+06  +2.922E+05  +6.771E+04  -2.490E+03  -3.357E+04  +1.197E+06
 +5.93E+00  +7.93E+00  +3.535E+04  +7.139E+03  +1.743E+03  -9.183E+02  -9.000E+03  +1.326E+06  +2.677E+05  +6.536E+04  -3.444E+03  -3.375E+04  +1.219E+06

element # = 77     type =16-n plate
 XX         YY         MXX         MYY         MXY         QYZ         QZX         SIGXX       SIGYY       TAUXY       TAUXZ(Z=0)  TAUYZ(Z=0)   SIGV
 +6.07E+00  +7.07E+00  +3.268E+04  +8.906E+03  +2.324E+03  -2.036E+02  -9.087E+03  +1.226E+06  +3.340E+05  +8.717E+04  -7.634E+02  -3.408E+04  +1.108E+06
 +6.07E+00  +7.33E+00  +3.316E+04  +8.329E+03  +2.184E+03  -4.766E+02  -9.168E+03  +1.243E+06  +3.124E+05  +8.188E+04  -1.787E+03  -3.438E+04  +1.129E+06
 +6.07E+00  +7.67E+00  +3.371E+04  +7.537E+03  +2.044E+03  -6.895E+02  -9.238E+03  +1.264E+06  +2.826E+05  +7.665E+04  -2.585E+03  -3.464E+04  +1.157E+06
 +6.07E+00  +7.93E+00  +3.411E+04  +6.901E+03  +1.973E+03  -9.265E+02  -9.273E+03  +1.279E+06  +2.588E+05  +7.398E+04  -3.474E+03  -3.477E+04  +1.178E+06
 +6.33E+00  +7.07E+00  +2.995E+04  +8.251E+03  +2.801E+03  -3.290E+02  -1.262E+04  +1.123E+06  +3.094E+05  +1.050E+05  -1.234E+03  -4.733E+04  +1.021E+06
 +6.33E+00  +7.33E+00  +3.036E+04  +7.699E+03  +2.630E+03  -5.636E+02  -1.275E+04  +1.138E+06  +2.887E+05  +9.864E+04  -2.113E+03  -4.780E+04  +1.039E+06
 +6.33E+00  +7.67E+00  +3.085E+04  +6.947E+03  +2.461E+03  -7.503E+02  -1.286E+04  +1.157E+06  +2.605E+05  +9.228E+04  -2.814E+03  -4.823E+04  +1.063E+06
 +6.33E+00  +7.93E+00  +3.119E+04  +6.347E+03  +2.374E+03  -9.485E+02  -1.293E+04  +1.170E+06  +2.380E+05  +8.902E+04  -3.557E+03  -4.847E+04  +1.082E+06
 +6.67E+00  +7.07E+00  +2.561E+04  +7.215E+03  +3.329E+03  -5.250E+02  -1.445E+04  +9.603E+05  +2.706E+05  +1.248E+05  -1.969E+03  -5.420E+04  +8.845E+05
 +6.67E+00  +7.33E+00  +2.593E+04  +6.703E+03  +3.125E+03  -6.989E+02  -1.458E+04  +9.724E+05  +2.514E+05  +1.172E+05  -2.621E+03  -5.468E+04  +8.975E+05
 +6.67E+00  +7.67E+00  +2.631E+04  +6.014E+03  +2.921E+03  -8.433E+02  -1.470E+04  +9.867E+05  +2.255E+05  +1.095E+05  -3.162E+03  -5.511E+04  +9.154E+05
 +6.67E+00  +7.93E+00  +2.658E+04  +5.470E+03  +2.816E+03  -9.790E+02  -1.475E+04  +9.968E+05  +2.051E+05  +1.056E+05  -3.671E+03  -5.532E+04  +9.299E+05
 +6.93E+00  +7.07E+00  +2.170E+04  +6.290E+03  +3.657E+03  -7.016E+02  -1.807E+04  +8.136E+05  +2.359E+05  +1.371E+05  -2.631E+03  -6.775E+04  +7.629E+05
 +6.93E+00  +7.33E+00  +2.194E+04  +5.812E+03  +3.432E+03  -8.218E+02  -1.824E+04  +8.228E+05  +2.179E+05  +1.287E+05  -3.082E+03  -6.840E+04  +7.713E+05
 +6.93E+00  +7.67E+00  +2.223E+04  +5.176E+03  +3.205E+03  -9.282E+02  -1.840E+04  +8.336E+05  +1.941E+05  +1.202E+05  -3.481E+03  -6.900E+04  +7.837E+05
 +6.93E+00  +7.93E+00  +2.243E+04  +4.681E+03  +3.088E+03  -1.007E+03  -1.849E+04  +8.412E+05  +1.755E+05  +1.158E+05  -3.776E+03  -6.933E+04  +7.944E+05

element # = 78     type =16-n plate
 XX         YY         MXX         MYY         MXY         QYZ         QZX         SIGXX       SIGYY       TAUXY       TAUXZ(Z=0)  TAUYZ(Z=0)   SIGV
 +7.07E+00  +7.07E+00  +1.930E+04  +5.735E+03  +3.798E+03  -8.080E+02  -1.836E+04  +7.237E+05  +2.151E+05  +1.424E+05  -3.030E+03  -6.884E+04  +6.894E+05
 +7.07E+00  +7.33E+00  +1.950E+04  +5.275E+03  +3.563E+03  -8.977E+02  -1.853E+04  +7.312E+05  +1.978E+05  +1.336E+05  -3.366E+03  -6.948E+04  +6.948E+05
 +7.07E+00  +7.67E+00  +1.973E+04  +4.669E+03  +3.327E+03  -9.811E+02  -1.869E+04  +7.400E+05  +1.751E+05  +1.248E+05  -3.679E+03  -7.007E+04  +7.038E+05
 +7.07E+00  +7.93E+00  +1.989E+04  +4.201E+03  +3.203E+03  -1.027E+03  -1.877E+04  +7.460E+05  +1.575E+05  +1.201E+05  -3.853E+03  -7.038E+04  +7.121E+05
 +7.33E+00  +7.07E+00  +1.419E+04  +4.577E+03  +4.000E+03  -1.030E+03  -2.217E+04  +5.323E+05  +1.716E+05  +1.500E+05  -3.864E+03  -8.315E+04  +5.375E+05
 +7.33E+00  +7.33E+00  +1.430E+04  +4.153E+03  +3.752E+03  -1.059E+03  -2.238E+04  +5.362E+05  +1.557E+05  +1.407E+05  -3.971E+03  -8.393E+04  +5.364E+05
 +7.33E+00  +7.67E+00  +1.442E+04  +3.605E+03  +3.501E+03  -1.095E+03  -2.258E+04  +5.408E+05  +1.352E+05  +1.313E+05  -4.105E+03  -8.467E+04  +5.379E+05
 +7.33E+00  +7.93E+00  +1.450E+04  +3.188E+03  +3.368E+03  -1.075E+03  -2.269E+04  +5.439E+05  +1.196E+05  +1.263E+05  -4.030E+03  -8.507E+04  +5.412E+05
 +7.67E+00  +7.07E+00  +6.686E+03  +2.909E+03  +4.122E+03  -1.354E+03  -2.406E+04  +2.507E+05  +1.091E+05  +1.546E+05  -5.077E+03  -9.024E+04  +3.451E+05
 +7.67E+00  +7.33E+00  +6.659E+03  +2.531E+03  +3.867E+03  -1.301E+03  -2.429E+04  +2.497E+05  +9.490E+04  +1.450E+05  -4.877E+03  -9.108E+04  +3.328E+05
 +7.67E+00  +7.67E+00  +6.626E+03  +2.057E+03  +3.607E+03  -1.268E+03  -2.451E+04  +2.485E+05  +7.714E+04  +1.353E+05  -4.757E+03  -9.191E+04  +3.216E+05
 +7.67E+00  +7.93E+00  +6.599E+03  +1.709E+03  +3.466E+03  -1.156E+03  -2.464E+04  +2.475E+05  +6.410E+04  +1.300E+05  -4.333E+03  -9.238E+04  +3.165E+05
 +7.93E+00  +7.07E+00  +2.835E+02  +1.520E+03  +4.104E+03  -1.626E+03  -2.799E+04  +1.063E+04  +5.702E+04  +1.539E+05  -6.099E+03  -1.050E+05  +2.717E+05
 +7.93E+00  +7.33E+00  +1.484E+02  +1.176E+03  +3.853E+03  -1.516E+03  -2.826E+04  +5.564E+03  +4.412E+04  +1.445E+05  -5.684E+03  -1.060E+05  +2.537E+05
 +7.93E+00  +7.67E+00  -1.141E+01  +7.565E+02  +3.594E+03  -1.425E+03  -2.853E+04  -4.280E+02  +2.837E+04  +1.348E+05  -5.345E+03  -1.070E+05  +2.352E+05
 +7.93E+00  +7.93E+00  -1.281E+02  +4.556E+02  +3.451E+03  -1.244E+03  -2.869E+04  -4.804E+03  +1.709E+04  +1.294E+05  -4.665E+03  -1.076E+05  +2.250E+05

element # = 79     type =16-n plate
 XX         YY         MXX         MYY         MXY         QYZ         QZX         SIGXX       SIGYY       TAUXY       TAUXZ(Z=0)  TAUYZ(Z=0)   SIGV
 +8.07E+00  +7.07E+00  -3.477E+03  +7.257E+02  +4.049E+03  -1.789E+03  -2.825E+04  -1.304E+05  +2.722E+04  +1.518E+05  -6.709E+03  -1.059E+05  +3.008E+05
 +8.07E+00  +7.33E+00  -3.673E+03  +3.985E+02  +3.804E+03  -1.648E+03  -2.852E+04  -1.377E+05  +1.494E+04  +1.426E+05  -6.180E+03  -1.070E+05  +2.869E+05
 +8.07E+00  +7.67E+00  -3.905E+03  +5.015E+00  +3.550E+03  -1.527E+03  -2.880E+04  -1.464E+05  +1.881E+02  +1.331E+05  -5.727E+03  -1.080E+05  +2.732E+05
 +8.07E+00  +7.93E+00  -4.066E+03  -2.712E+02  +3.410E+03  -1.309E+03  -2.898E+04  -1.525E+05  -1.017E+04  +1.279E+05  -4.910E+03  -1.087E+05  +2.662E+05
 +8.33E+00  +7.07E+00  -1.122E+04  -8.664E+02  +3.868E+03  -2.104E+03  -3.241E+04  -4.208E+05  -3.249E+04  +1.450E+05  -7.889E+03  -1.215E+05  +4.771E+05
 +8.33E+00  +7.33E+00  -1.154E+04  -1.165E+03  +3.640E+03  -1.915E+03  -3.272E+04  -4.327E+05  -4.368E+04  +1.365E+05  -7.182E+03  -1.227E+05  +4.755E+05
 +8.33E+00  +7.67E+00  -1.191E+04  -1.514E+03  +3.404E+03  -1.737E+03  -3.307E+04  -4.465E+05  -5.678E+04  +1.277E+05  -6.513E+03  -1.240E+05  +4.755E+05
 +8.33E+00  +7.93E+00  -1.217E+04  -1.753E+03  +3.271E+03  -1.457E+03  -3.329E+04  -4.562E+05  -6.572E+04  +1.227E+05  -5.463E+03  -1.248E+05  +4.771E+05
 +8.67E+00  +7.07E+00  -2.227E+04  -3.061E+03  +3.455E+03  -2.545E+03  -3.434E+04  -8.352E+05  -1.148E+05  +1.296E+05  -9.545E+03  -1.288E+05  +8.157E+05
 +8.67E+00  +7.33E+00  -2.275E+04  -3.325E+03  +3.265E+03  -2.324E+03  -3.467E+04  -8.532E+05  -1.247E+05  +1.224E+05  -8.713E+03  -1.300E+05  +8.258E+05
 +8.67E+00  +7.67E+00  -2.331E+04  -3.630E+03  +3.069E+03  -2.077E+03  -3.507E+04  -8.742E+05  -1.361E+05  +1.151E+05  -7.788E+03  -1.315E+05  +8.388E+05
 +8.67E+00  +7.93E+00  -2.370E+04  -3.835E+03  +2.958E+03  -1.749E+03  -3.537E+04  -8.888E+05  -1.438E+05  +1.109E+05  -6.559E+03  -1.326E+05  +8.484E+05
 +8.93E+00  +7.07E+00  -3.146E+04  -4.817E+03  +3.004E+03  -2.963E+03  -3.858E+04  -1.180E+06  -1.806E+05  +1.126E+05  -1.111E+04  -1.447E+05  +1.118E+06
 +8.93E+00  +7.33E+00  -3.207E+04  -5.059E+03  +2.850E+03  -2.730E+03  -3.895E+04  -1.203E+06  -1.897E+05  +1.069E+05  -1.024E+04  -1.461E+05  +1.135E+06
 +8.93E+00  +7.67E+00  -3.279E+04  -5.339E+03  +2.699E+03  -2.454E+03  -3.942E+04  -1.230E+06  -2.002E+05  +1.012E+05  -9.204E+03  -1.478E+05  +1.156E+06
 +8.93E+00  +7.93E+00  -3.328E+04  -5.526E+03  +2.620E+03  -2.124E+03  -3.979E+04  -1.248E+06  -2.072E+05  +9.827E+04  -7.965E+03  -1.492E+05  +1.171E+06

element # = 80     type =16-n plate
 XX         YY         MXX         MYY         MXY         QYZ         QZX         SIGXX       SIGYY       TAUXY       TAUXZ(Z=0)  TAUYZ(Z=0)   SIGV
 +9.07E+00  +7.07E+00  -3.675E+04  -5.800E+03  +2.759E+03  -2.960E+03  -3.881E+04  -1.378E+06  -2.175E+05  +1.035E+05  -1.110E+04  -1.456E+05  +1.296E+06
 +9.07E+00  +7.33E+00  -3.743E+04  -6.031E+03  +2.626E+03  -2.738E+03  -3.920E+04  -1.404E+06  -2.262E+05  +9.847E+04  -1.027E+04  -1.470E+05  +1.316E+06
 +9.07E+00  +7.67E+00  -3.824E+04  -6.300E+03  +2.501E+03  -2.456E+03  -3.971E+04  -1.434E+06  -2.363E+05  +9.380E+04  -9.209E+03  -1.489E+05  +1.341E+06
 +9.07E+00  +7.93E+00  -3.881E+04  -6.483E+03  +2.439E+03  -2.130E+03  -4.009E+04  -1.455E+06  -2.431E+05  +9.147E+04  -7.988E+03  -1.503E+05  +1.360E+06
 +9.33E+00  +7.07E+00  -4.742E+04  -7.727E+03  +2.064E+03  -3.413E+03  -4.313E+04  -1.778E+06  -2.897E+05  +7.742E+04  -1.280E+04  -1.617E+05  +1.658E+06
 +9.33E+00  +7.33E+00  -4.823E+04  -7.939E+03  +1.978E+03  -3.218E+03  -4.348E+04  -1.809E+06  -2.977E+05  +7.416E+04  -1.207E+04  -1.631E+05  +1.684E+06
 +9.33E+00  +7.67E+00  -4.921E+04  -8.195E+03  +1.906E+03  -2.963E+03  -4.401E+04  -1.845E+06  -3.073E+05  +7.148E+04  -1.111E+04  -1.650E+05  +1.717E+06
 +9.33E+00  +7.93E+00  -4.991E+04  -8.374E+03  +1.880E+03  -2.713E+03  -4.452E+04  -1.872E+06  -3.140E+05  +7.050E+04  -1.017E+04  -1.670E+05  +1.740E+06
 +9.67E+00  +7.07E+00  -6.230E+04  -1.033E+04  +1.181E+03  -3.743E+03  -4.505E+04  -2.336E+06  -3.872E+05  +4.429E+04  -1.404E+04  -1.689E+05  +2.170E+06
 +9.67E+00  +7.33E+00  -6.326E+04  -1.052E+04  +1.141E+03  -3.595E+03  -4.540E+04  -2.372E+06  -3.945E+05  +4.277E+04  -1.348E+04  -1.703E+05  +2.203E+06
 +9.67E+00  +7.67E+00  -6.447E+04  -1.076E+04  +1.123E+03  -3.450E+03  -4.595E+04  -2.418E+06  -4.036E+05  +4.212E+04  -1.294E+04  -1.723E+05  +2.245E+06
 +9.67E+00  +7.93E+00  -6.537E+04  -1.095E+04  +1.136E+03  -3.371E+03  -4.646E+04  -2.451E+06  -4.105E+05  +4.258E+04  -1.264E+04  -1.742E+05  +2.275E+06
 +9.93E+00  +7.07E+00  -7.445E+04  -1.240E+04  +5.269E+02  -1.320E+03  -4.930E+04  -2.792E+06  -4.650E+05  +1.976E+04  -4.948E+03  -1.849E+05  +2.591E+06
 +9.93E+00  +7.33E+00  -7.552E+04  -1.258E+04  +5.126E+02  -1.276E+03  -4.957E+04  -2.832E+06  -4.719E+05  +1.922E+04  -4.784E+03  -1.859E+05  +2.628E+06
 +9.93E+00  +7.67E+00  -7.689E+04  -1.282E+04  +5.157E+02  -1.244E+03  -5.005E+04  -2.884E+06  -4.808E+05  +1.934E+04  -4.665E+03  -1.877E+05  +2.676E+06
 +9.93E+00  +7.93E+00  -7.796E+04  -1.301E+04  +5.353E+02  -1.244E+03  -5.058E+04  -2.924E+06  -4.878E+05  +2.007E+04  -4.663E+03  -1.897E+05  +2.713E+06

element # = 81     type =16-n plate
 XX         YY         MXX         MYY         MXY         QYZ         QZX         SIGXX       SIGYY       TAUXY       TAUXZ(Z=0)  TAUYZ(Z=0)   SIGV
 +6.94E-02  +8.07E+00  -7.852E+04  -1.310E+04  -5.357E+02  -1.230E+03  +5.101E+04  -2.945E+06  -4.911E+05  -2.009E+04  -4.612E+03  +1.913E+05  +2.732E+06
 +6.94E-02  +8.33E+00  -7.965E+04  -1.330E+04  -5.890E+02  -1.205E+03  +5.205E+04  -2.987E+06  -4.988E+05  -2.209E+04  -4.520E+03  +1.952E+05  +2.772E+06
 +6.94E-02  +8.67E+00  -8.117E+04  -1.352E+04  -6.009E+02  -1.012E+03  +5.439E+04  -3.044E+06  -5.071E+05  -2.253E+04  -3.797E+03  +2.040E+05  +2.825E+06
 +6.94E-02  +8.93E+00  -8.212E+04  -1.361E+04  -4.974E+02  -4.286E+02  +5.766E+04  -3.079E+06  -5.105E+05  -1.865E+04  -1.607E+03  +2.162E+05  +2.859E+06
 +3.30E-01  +8.07E+00  -6.585E+04  -1.102E+04  -1.131E+03  -3.349E+03  +4.683E+04  -2.469E+06  -4.132E+05  -4.240E+04  -1.256E+04  +1.756E+05  +2.292E+06
 +3.30E-01  +8.33E+00  -6.674E+04  -1.121E+04  -1.183E+03  -3.014E+03  +4.766E+04  -2.503E+06  -4.203E+05  -4.436E+04  -1.130E+04  +1.787E+05  +2.322E+06
 +3.30E-01  +8.67E+00  -6.782E+04  -1.124E+04  -1.148E+03  -2.431E+03  +4.913E+04  -2.543E+06  -4.214E+05  -4.306E+04  -9.117E+03  +1.843E+05  +2.362E+06
 +3.30E-01  +8.93E+00  -6.866E+04  -1.110E+04  -1.001E+03  -6.629E+02  +5.094E+04  -2.575E+06  -4.164E+05  -3.755E+04  -2.486E+03  +1.910E+05  +2.395E+06
 +6.70E-01  +8.07E+00  -5.028E+04  -8.445E+03  -1.884E+03  -2.710E+03  +4.478E+04  -1.885E+06  -3.167E+05  -7.067E+04  -1.016E+04  +1.679E+05  +1.753E+06
 +6.70E-01  +8.33E+00  -5.090E+04  -8.572E+03  -1.862E+03  -1.869E+03  +4.552E+04  -1.909E+06  -3.214E+05  -6.981E+04  -7.009E+03  +1.707E+05  +1.774E+06
 +6.70E-01  +8.67E+00  -5.162E+04  -8.432E+03  -1.819E+03  -1.261E+03  +4.662E+04  -1.936E+06  -3.162E+05  -6.820E+04  -4.730E+03  +1.748E+05  +1.802E+06
 +6.70E-01  +8.93E+00  -5.221E+04  -8.113E+03  -1.772E+03  +5.220E+02  +4.680E+04  -1.958E+06  -3.042E+05  -6.645E+04  +1.958E+03  +1.755E+05  +1.829E+06
 +9.31E-01  +8.07E+00  -3.907E+04  -6.564E+03  -2.420E+03  -2.096E+03  +4.031E+04  -1.465E+06  -2.461E+05  -9.076E+04  -7.859E+03  +1.511E+05  +1.368E+06
 +9.31E-01  +8.33E+00  -3.955E+04  -6.631E+03  -2.367E+03  -1.202E+03  +4.071E+04  -1.483E+06  -2.487E+05  -8.877E+04  -4.508E+03  +1.526E+05  +1.384E+06
 +9.31E-01  +8.67E+00  -4.015E+04  -6.459E+03  -2.317E+03  -6.426E+02  +4.099E+04  -1.506E+06  -2.422E+05  -8.688E+04  -2.410E+03  +1.537E+05  +1.408E+06
 +9.31E-01  +8.93E+00  -4.047E+04  -6.109E+03  -2.320E+03  +8.274E+02  +4.090E+04  -1.518E+06  -2.291E+05  -8.699E+04  +3.103E+03  +1.534E+05  +1.425E+06

element # = 82     type =16-n plate
 XX         YY         MXX         MYY         MXY         QYZ         QZX         SIGXX       SIGYY       TAUXY       TAUXZ(Z=0)  TAUYZ(Z=0)   SIGV
 +1.07E+00  +8.07E+00  -3.354E+04  -5.608E+03  -2.585E+03  -2.087E+03  +3.995E+04  -1.258E+06  -2.103E+05  -9.692E+04  -7.825E+03  +1.498E+05  +1.179E+06
 +1.07E+00  +8.33E+00  -3.397E+04  -5.669E+03  -2.525E+03  -1.246E+03  +4.032E+04  -1.274E+06  -2.126E+05  -9.468E+04  -4.671E+03  +1.512E+05  +1.193E+06
 +1.07E+00  +8.67E+00  -3.448E+04  -5.488E+03  -2.486E+03  -7.553E+02  +4.061E+04  -1.293E+06  -2.058E+05  -9.321E+04  -2.832E+03  +1.523E+05  +1.214E+06
 +1.07E+00  +8.93E+00  -3.499E+04  -5.178E+03  -2.467E+03  +6.311E+02  +4.017E+04  -1.312E+06  -1.942E+05  -9.253E+04  +2.367E+03  +1.506E+05  +1.237E+06
 +1.33E+00  +8.07E+00  -2.390E+04  -3.914E+03  -2.927E+03  -1.744E+03  +3.545E+04  -8.961E+05  -1.468E+05  -1.098E+05  -6.539E+03  +1.329E+05  +8.539E+05
 +1.33E+00  +8.33E+00  -2.424E+04  -3.991E+03  -2.842E+03  -9.361E+02  +3.568E+04  -9.089E+05  -1.497E+05  -1.066E+05  -3.511E+03  +1.338E+05  +8.640E+05
 +1.33E+00  +8.67E+00  -2.466E+04  -3.842E+03  -2.846E+03  -6.309E+02  +3.580E+04  -9.248E+05  -1.441E+05  -1.067E+05  -2.366E+03  +1.343E+05  +8.814E+05
 +1.33E+00  +8.93E+00  -2.504E+04  -3.547E+03  -2.952E+03  +4.859E+02  +3.508E+04  -9.389E+05  -1.330E+05  -1.107E+05  +1.822E+03  +1.315E+05  +9.006E+05
 +1.67E+00  +8.07E+00  -1.229E+04  -1.860E+03  -3.230E+03  -1.441E+03  +3.334E+04  -4.610E+05  -6.975E+04  -1.211E+05  -5.403E+03  +1.250E+05  +4.788E+05
 +1.67E+00  +8.33E+00  -1.252E+04  -1.969E+03  -3.149E+03  -8.622E+02  +3.346E+04  -4.696E+05  -7.386E+04  -1.181E+05  -3.233E+03  +1.255E+05  +4.828E+05
 +1.67E+00  +8.67E+00  -1.283E+04  -1.953E+03  -3.201E+03  -6.439E+02  +3.336E+04  -4.811E+05  -7.324E+04  -1.201E+05  -2.415E+03  +1.251E+05  +4.948E+05
 +1.67E+00  +8.93E+00  -1.309E+04  -1.821E+03  -3.387E+03  +5.873E+01  +3.255E+04  -4.908E+05  -6.830E+04  -1.270E+05  +2.202E+02  +1.220E+05  +5.103E+05
 +1.93E+00  +8.07E+00  -4.152E+03  -3.996E+02  -3.367E+03  -1.298E+03  +2.898E+04  -1.557E+05  -1.498E+04  -1.263E+05  -4.867E+03  +1.087E+05  +2.645E+05
 +1.93E+00  +8.33E+00  -4.304E+03  -5.709E+02  -3.295E+03  -8.804E+02  +2.905E+04  -1.614E+05  -2.141E+04  -1.236E+05  -3.302E+03  +1.089E+05  +2.624E+05
 +1.93E+00  +8.67E+00  -4.503E+03  -6.799E+02  -3.385E+03  -7.377E+02  +2.896E+04  -1.689E+05  -2.550E+04  -1.269E+05  -2.766E+03  +1.086E+05  +2.705E+05
 +1.93E+00  +8.93E+00  -4.695E+03  -6.824E+02  -3.598E+03  -2.621E+02  +2.809E+04  -1.761E+05  -2.559E+04  -1.349E+05  -9.830E+02  +1.053E+05  +2.860E+05

element # = 83     type =16-n plate
 XX         YY         MXX         MYY         MXY         QYZ         QZX         SIGXX       SIGYY       TAUXY       TAUXZ(Z=0)  TAUYZ(Z=0)   SIGV
 +2.07E+00  +8.07E+00  -1.853E+02  +3.158E+02  -3.413E+03  -1.240E+03  +2.869E+04  -6.947E+03  +1.184E+04  -1.280E+05  -4.649E+03  +1.076E+05  +2.223E+05
 +2.07E+00  +8.33E+00  -2.925E+02  +1.039E+02  -3.344E+03  -8.922E+02  +2.874E+04  -1.097E+04  +3.897E+03  -1.254E+05  -3.346E+03  +1.078E+05  +2.176E+05
 +2.07E+00  +8.67E+00  -4.433E+02  -7.706E+01  -3.442E+03  -7.906E+02  +2.862E+04  -1.662E+04  -2.890E+03  -1.291E+05  -2.965E+03  +1.073E+05  +2.241E+05
 +2.07E+00  +8.93E+00  -5.628E+02  -1.419E+02  -3.684E+03  -4.093E+02  +2.776E+04  -2.111E+04  -5.320E+03  -1.381E+05  -1.535E+03  +1.041E+05  +2.400E+05
 +2.33E+00  +8.07E+00  +6.585E+03  +1.534E+03  -3.429E+03  -1.151E+03  +2.462E+04  +2.469E+05  +5.754E+04  -1.286E+05  -4.316E+03  +9.233E+04  +3.157E+05
 +2.33E+00  +8.33E+00  +6.558E+03  +1.251E+03  -3.372E+03  -9.548E+02  +2.465E+04  +2.459E+05  +4.691E+04  -1.264E+05  -3.580E+03  +9.242E+04  +3.148E+05
 +2.33E+00  +8.67E+00  +6.514E+03  +9.278E+02  -3.486E+03  -8.865E+02  +2.450E+04  +2.443E+05  +3.479E+04  -1.307E+05  -3.324E+03  +9.189E+04  +3.219E+05
 +2.33E+00  +8.93E+00  +6.479E+03  +7.165E+02  -3.733E+03  -6.957E+02  +2.367E+04  +2.430E+05  +2.687E+04  -1.400E+05  -2.609E+03  +8.874E+04  +3.347E+05
 +2.67E+00  +8.07E+00  +1.455E+04  +2.972E+03  -3.335E+03  -1.078E+03  +2.267E+04  +5.454E+05  +1.114E+05  -1.250E+05  -4.044E+03  +8.499E+04  +5.441E+05
 +2.67E+00  +8.33E+00  +1.462E+04  +2.582E+03  -3.288E+03  -1.037E+03  +2.268E+04  +5.482E+05  +9.683E+04  -1.233E+05  -3.887E+03  +8.504E+04  +5.499E+05
 +2.67E+00  +8.67E+00  +1.471E+04  +2.079E+03  -3.411E+03  -1.024E+03  +2.255E+04  +5.515E+05  +7.798E+04  -1.279E+05  -3.840E+03  +8.457E+04  +5.624E+05
 +2.67E+00  +8.93E+00  +1.478E+04  +1.700E+03  -3.654E+03  -1.009E+03  +2.178E+04  +5.544E+05  +6.376E+04  -1.370E+05  -3.784E+03  +8.166E+04  +5.765E+05
 +2.93E+00  +8.07E+00  +1.998E+04  +3.951E+03  -3.174E+03  -1.037E+03  +1.874E+04  +7.491E+05  +1.482E+05  -1.190E+05  -3.888E+03  +7.029E+04  +7.174E+05
 +2.93E+00  +8.33E+00  +2.012E+04  +3.484E+03  -3.135E+03  -1.096E+03  +1.875E+04  +7.547E+05  +1.306E+05  -1.176E+05  -4.109E+03  +7.031E+04  +7.276E+05
 +2.93E+00  +8.67E+00  +2.031E+04  +2.852E+03  -3.253E+03  -1.115E+03  +1.862E+04  +7.617E+05  +1.069E+05  -1.220E+05  -4.182E+03  +6.984E+04  +7.448E+05
 +2.93E+00  +8.93E+00  +2.047E+04  +2.354E+03  -3.485E+03  -1.212E+03  +1.790E+04  +7.677E+05  +8.827E+04  -1.307E+05  -4.545E+03  +6.713E+04  +7.620E+05

element # = 84     type =16-n plate
 XX         YY         MXX         MYY         MXY         QYZ         QZX         SIGXX       SIGYY       TAUXY       TAUXZ(Z=0)  TAUYZ(Z=0)   SIGV
 +3.07E+00  +8.07E+00  +2.253E+04  +4.412E+03  -3.059E+03  -1.019E+03  +1.847E+04  +8.451E+05  +1.655E+05  -1.147E+05  -3.821E+03  +6.925E+04  +8.007E+05
 +3.07E+00  +8.33E+00  +2.272E+04  +3.906E+03  -3.024E+03  -1.126E+03  +1.848E+04  +8.520E+05  +1.465E+05  -1.134E+05  -4.221E+03  +6.930E+04  +8.131E+05
 +3.07E+00  +8.67E+00  +2.296E+04  +3.210E+03  -3.140E+03  -1.159E+03  +1.838E+04  +8.608E+05  +1.204E+05  -1.177E+05  -4.347E+03  +6.891E+04  +8.328E+05
 +3.07E+00  +8.93E+00  +2.315E+04  +2.653E+03  -3.359E+03  -1.309E+03  +1.771E+04  +8.683E+05  +9.948E+04  -1.260E+05  -4.909E+03  +6.641E+04  +8.515E+05
 +3.33E+00  +8.07E+00  +2.672E+04  +5.171E+03  -2.791E+03  -9.964E+02  +1.472E+04  +1.002E+06  +1.939E+05  -1.047E+05  -3.737E+03  +5.521E+04  +9.382E+05
 +3.33E+00  +8.33E+00  +2.697E+04  +4.594E+03  -2.761E+03  -1.179E+03  +1.471E+04  +1.011E+06  +1.723E+05  -1.036E+05  -4.420E+03  +5.518E+04  +9.541E+05
 +3.33E+00  +8.67E+00  +2.728E+04  +3.787E+03  -2.866E+03  -1.242E+03  +1.460E+04  +1.023E+06  +1.420E+05  -1.075E+05  -4.658E+03  +5.475E+04  +9.780E+05
 +3.33E+00  +8.93E+00  +2.755E+04  +3.132E+03  -3.063E+03  -1.470E+03  +1.398E+04  +1.033E+06  +1.174E+05  -1.149E+05  -5.512E+03  +5.244E+04  +9.996E+05
 +3.67E+00  +8.07E+00  +3.137E+04  +6.013E+03  -2.354E+03  -9.722E+02  +1.291E+04  +1.176E+06  +2.255E+05  -8.827E+04  -3.646E+03  +4.841E+04  +1.092E+06
 +3.67E+00  +8.33E+00  +3.169E+04  +5.357E+03  -2.331E+03  -1.234E+03  +1.292E+04  +1.188E+06  +2.009E+05  -8.740E+04  -4.628E+03  +4.846E+04  +1.112E+06
 +3.67E+00  +8.67E+00  +3.210E+04  +4.427E+03  -2.418E+03  -1.328E+03  +1.286E+04  +1.204E+06  +1.660E+05  -9.069E+04  -4.979E+03  +4.822E+04  +1.141E+06
 +3.67E+00  +8.93E+00  +3.244E+04  +3.662E+03  -2.581E+03  -1.639E+03  +1.238E+04  +1.216E+06  +1.373E+05  -9.678E+04  -6.145E+03  +4.641E+04  +1.166E+06
 +3.93E+00  +8.07E+00  +3.431E+04  +6.544E+03  -1.956E+03  -9.548E+02  +9.251E+03  +1.287E+06  +2.454E+05  -7.336E+04  -3.580E+03  +3.469E+04  +1.190E+06
 +3.93E+00  +8.33E+00  +3.468E+04  +5.839E+03  -1.938E+03  -1.263E+03  +9.245E+03  +1.301E+06  +2.190E+05  -7.266E+04  -4.737E+03  +3.467E+04  +1.213E+06
 +3.93E+00  +8.67E+00  +3.516E+04  +4.833E+03  -2.010E+03  -1.376E+03  +9.171E+03  +1.318E+06  +1.812E+05  -7.536E+04  -5.158E+03  +3.439E+04  +1.245E+06
 +3.93E+00  +8.93E+00  +3.554E+04  +4.001E+03  -2.142E+03  -1.737E+03  +8.755E+03  +1.333E+06  +1.501E+05  -8.032E+04  -6.513E+03  +3.283E+04  +1.272E+06

element # = 85     type =16-n plate
 XX         YY         MXX         MYY         MXY         QYZ         QZX         SIGXX       SIGYY       TAUXY       TAUXZ(Z=0)  TAUYZ(Z=0)   SIGV
 +4.07E+00  +8.07E+00  +3.557E+04  +6.772E+03  -1.729E+03  -9.486E+02  +8.990E+03  +1.334E+06  +2.539E+05  -6.482E+04  -3.557E+03  +3.371E+04  +1.232E+06
 +4.07E+00  +8.33E+00  +3.596E+04  +6.044E+03  -1.712E+03  -1.277E+03  +9.002E+03  +1.348E+06  +2.266E+05  -6.421E+04  -4.790E+03  +3.376E+04  +1.255E+06
 +4.07E+00  +8.67E+00  +3.646E+04  +5.004E+03  -1.775E+03  -1.399E+03  +8.960E+03  +1.367E+06  +1.876E+05  -6.658E+04  -5.244E+03  +3.360E+04  +1.289E+06
 +4.07E+00  +8.93E+00  +3.686E+04  +4.143E+03  -1.891E+03  -1.781E+03  +8.619E+03  +1.382E+06  +1.553E+05  -7.093E+04  -6.678E+03  +3.232E+04  +1.317E+06
 +4.33E+00  +8.07E+00  +3.734E+04  +7.094E+03  -1.270E+03  -9.436E+02  +5.417E+03  +1.400E+06  +2.660E+05  -4.764E+04  -3.539E+03  +2.031E+04  +1.290E+06
 +4.33E+00  +8.33E+00  +3.775E+04  +6.332E+03  -1.259E+03  -1.303E+03  +5.404E+03  +1.416E+06  +2.374E+05  -4.720E+04  -4.887E+03  +2.027E+04  +1.316E+06
 +4.33E+00  +8.67E+00  +3.829E+04  +5.240E+03  -1.305E+03  -1.437E+03  +5.347E+03  +1.436E+06  +1.965E+05  -4.892E+04  -5.390E+03  +2.005E+04  +1.351E+06
 +4.33E+00  +8.93E+00  +3.873E+04  +4.333E+03  -1.389E+03  -1.849E+03  +5.077E+03  +1.452E+06  +1.625E+05  -5.207E+04  -6.934E+03  +1.904E+04  +1.381E+06
 +4.67E+00  +8.07E+00  +3.886E+04  +7.372E+03  -6.388E+02  -9.368E+02  +3.673E+03  +1.457E+06  +2.765E+05  -2.396E+04  -3.513E+03  +1.377E+04  +1.341E+06
 +4.67E+00  +8.33E+00  +3.931E+04  +6.582E+03  -6.330E+02  -1.321E+03  +3.687E+03  +1.474E+06  +2.468E+05  -2.374E+04  -4.952E+03  +1.383E+04  +1.368E+06
 +4.67E+00  +8.67E+00  +3.988E+04  +5.447E+03  -6.558E+02  -1.465E+03  +3.686E+03  +1.495E+06  +2.043E+05  -2.459E+04  -5.495E+03  +1.382E+04  +1.405E+06
 +4.67E+00  +8.93E+00  +4.034E+04  +4.504E+03  -6.977E+02  -1.902E+03  +3.571E+03  +1.513E+06  +1.689E+05  -2.616E+04  -7.133E+03  +1.339E+04  +1.437E+06
 +4.93E+00  +8.07E+00  +3.944E+04  +7.475E+03  -1.343E+02  -9.303E+02  +1.280E+02  +1.479E+06  +2.803E+05  -5.036E+03  -3.489E+03  +4.799E+02  +1.361E+06
 +4.93E+00  +8.33E+00  +3.989E+04  +6.677E+03  -1.330E+02  -1.321E+03  +1.182E+02  +1.496E+06  +2.504E+05  -4.989E+03  -4.955E+03  +4.431E+02  +1.388E+06
 +4.93E+00  +8.67E+00  +4.048E+04  +5.530E+03  -1.378E+02  -1.469E+03  +1.008E+02  +1.518E+06  +2.074E+05  -5.168E+03  -5.510E+03  +3.779E+02  +1.426E+06
 +4.93E+00  +8.93E+00  +4.095E+04  +4.575E+03  -1.468E+02  -1.915E+03  +6.110E+01  +1.536E+06  +1.716E+05  -5.503E+03  -7.183E+03  +2.291E+02  +1.458E+06

element # = 86     type =16-n plate
 XX         YY         MXX         MYY         MXY         QYZ         QZX         SIGXX       SIGYY       TAUXY       TAUXZ(Z=0)  TAUYZ(Z=0)   SIGV
 +5.07E+00  +8.07E+00  +3.944E+04  +7.475E+03  +1.343E+02  -9.303E+02  -1.280E+02  +1.479E+06  +2.803E+05  +5.036E+03  -3.489E+03  -4.799E+02  +1.361E+06
 +5.07E+00  +8.33E+00  +3.989E+04  +6.677E+03  +1.330E+02  -1.321E+03  -1.182E+02  +1.496E+06  +2.504E+05  +4.989E+03  -4.955E+03  -4.431E+02  +1.388E+06
 +5.07E+00  +8.67E+00  +4.048E+04  +5.530E+03  +1.378E+02  -1.469E+03  -1.008E+02  +1.518E+06  +2.074E+05  +5.168E+03  -5.510E+03  -3.779E+02  +1.426E+06
 +5.07E+00  +8.93E+00  +4.095E+04  +4.575E+03  +1.468E+02  -1.915E+03  -6.110E+01  +1.536E+06  +1.716E+05  +5.503E+03  -7.183E+03  -2.291E+02  +1.458E+06
 +5.33E+00  +8.07E+00  +3.886E+04  +7.372E+03  +6.388E+02  -9.368E+02  -3.673E+03  +1.457E+06  +2.765E+05  +2.396E+04  -3.513E+03  -1.377E+04  +1.341E+06
 +5.33E+00  +8.33E+00  +3.931E+04  +6.582E+03  +6.330E+02  -1.321E+03  -3.687E+03  +1.474E+06  +2.468E+05  +2.374E+04  -4.952E+03  -1.383E+04  +1.368E+06
 +5.33E+00  +8.67E+00  +3.988E+04  +5.447E+03  +6.558E+02  -1.465E+03  -3.686E+03  +1.495E+06  +2.043E+05  +2.459E+04  -5.495E+03  -1.382E+04  +1.405E+06
 +5.33E+00  +8.93E+00  +4.034E+04  +4.504E+03  +6.977E+02  -1.902E+03  -3.571E+03  +1.513E+06  +1.689E+05  +2.616E+04  -7.133E+03  -1.339E+04  +1.437E+06
 +5.67E+00  +8.07E+00  +3.734E+04  +7.094E+03  +1.270E+03  -9.436E+02  -5.417E+03  +1.400E+06  +2.660E+05  +4.764E+04  -3.539E+03  -2.031E+04  +1.290E+06
 +5.67E+00  +8.33E+00  +3.775E+04  +6.332E+03  +1.259E+03  -1.303E+03  -5.404E+03  +1.416E+06  +2.374E+05  +4.720E+04  -4.887E+03  -2.027E+04  +1.316E+06
 +5.67E+00  +8.67E+00  +3.829E+04  +5.240E+03  +1.305E+03  -1.437E+03  -5.347E+03  +1.436E+06  +1.965E+05  +4.892E+04  -5.390E+03  -2.005E+04  +1.351E+06
 +5.67E+00  +8.93E+00  +3.873E+04  +4.333E+03  +1.389E+03  -1.849E+03  -5.077E+03  +1.452E+06  +1.625E+05  +5.207E+04  -6.934E+03  -1.904E+04  +1.381E+06
 +5.93E+00  +8.07E+00  +3.557E+04  +6.772E+03  +1.729E+03  -9.486E+02  -8.990E+03  +1.334E+06  +2.539E+05  +6.482E+04  -3.557E+03  -3.371E+04  +1.232E+06
 +5.93E+00  +8.33E+00  +3.596E+04  +6.044E+03  +1.712E+03  -1.277E+03  -9.002E+03  +1.348E+06  +2.266E+05  +6.421E+04  -4.790E+03  -3.376E+04  +1.255E+06
 +5.93E+00  +8.67E+00  +3.646E+04  +5.004E+03  +1.775E+03  -1.399E+03  -8.960E+03  +1.367E+06  +1.876E+05  +6.658E+04  -5.244E+03  -3.360E+04  +1.289E+06
 +5.93E+00  +8.93E+00  +3.686E+04  +4.143E+03  +1.891E+03  -1.781E+03  -8.619E+03  +1.382E+06  +1.553E+05  +7.093E+04  -6.678E+03  -3.232E+04  +1.317E+06

element # = 87     type =16-n plate
 XX         YY         MXX         MYY         MXY         QYZ         QZX         SIGXX       SIGYY       TAUXY       TAUXZ(Z=0)  TAUYZ(Z=0)   SIGV
 +6.07E+00  +8.07E+00  +3.431E+04  +6.544E+03  +1.956E+03  -9.548E+02  -9.251E+03  +1.287E+06  +2.454E+05  +7.336E+04  -3.580E+03  -3.469E+04  +1.190E+06
 +6.07E+00  +8.33E+00  +3.468E+04  +5.839E+03  +1.938E+03  -1.263E+03  -9.245E+03  +1.301E+06  +2.190E+05  +7.266E+04  -4.737E+03  -3.467E+04  +1.213E+06
 +6.07E+00  +8.67E+00  +3.516E+04  +4.833E+03  +2.010E+03  -1.376E+03  -9.171E+03  +1.318E+06  +1.812E+05  +7.536E+04  -5.158E+03  -3.439E+04  +1.245E+06
 +6.07E+00  +8.93E+00  +3.554E+04  +4.001E+03  +2.142E+03  -1.737E+03  -8.755E+03  +1.333E+06  +1.501E+05  +8.032E+04  -6.513E+03  -3.283E+04  +1.272E+06
 +6.33E+00  +8.07E+00  +3.137E+04  +6.013E+03  +2.354E+03  -9.722E+02  -1.291E+04  +1.176E+06  +2.255E+05  +8.827E+04  -3.646E+03  -4.841E+04  +1.092E+06
 +6.33E+00  +8.33E+00  +3.169E+04  +5.357E+03  +2.331E+03  -1.234E+03  -1.292E+04  +1.188E+06  +2.009E+05  +8.740E+04  -4.628E+03  -4.846E+04  +1.112E+06
 +6.33E+00  +8.67E+00  +3.210E+04  +4.427E+03  +2.418E+03  -1.328E+03  -1.286E+04  +1.204E+06  +1.660E+05  +9.069E+04  -4.979E+03  -4.822E+04  +1.141E+06
 +6.33E+00  +8.93E+00  +3.244E+04  +3.662E+03  +2.581E+03  -1.639E+03  -1.238E+04  +1.216E+06  +1.373E+05  +9.678E+04  -6.145E+03  -4.641E+04  +1.166E+06
 +6.67E+00  +8.07E+00  +2.672E+04  +5.171E+03  +2.791E+03  -9.964E+02  -1.472E+04  +1.002E+06  +1.939E+05  +1.047E+05  -3.737E+03  -5.521E+04  +9.382E+05
 +6.67E+00  +8.33E+00  +2.697E+04  +4.594E+03  +2.761E+03  -1.179E+03  -1.471E+04  +1.011E+06  +1.723E+05  +1.036E+05  -4.420E+03  -5.518E+04  +9.541E+05
 +6.67E+00  +8.67E+00  +2.728E+04  +3.787E+03  +2.866E+03  -1.242E+03  -1.460E+04  +1.023E+06  +1.420E+05  +1.075E+05  -4.658E+03  -5.475E+04  +9.780E+05
 +6.67E+00  +8.93E+00  +2.755E+04  +3.132E+03  +3.063E+03  -1.470E+03  -1.398E+04  +1.033E+06  +1.174E+05  +1.149E+05  -5.512E+03  -5.244E+04  +9.996E+05
 +6.93E+00  +8.07E+00  +2.253E+04  +4.412E+03  +3.059E+03  -1.019E+03  -1.847E+04  +8.451E+05  +1.655E+05  +1.147E+05  -3.821E+03  -6.925E+04  +8.007E+05
 +6.93E+00  +8.33E+00  +2.272E+04  +3.906E+03  +3.024E+03  -1.126E+03  -1.848E+04  +8.520E+05  +1.465E+05  +1.134E+05  -4.221E+03  -6.930E+04  +8.131E+05
 +6.93E+00  +8.67E+00  +2.296E+04  +3.210E+03  +3.140E+03  -1.159E+03  -1.838E+04  +8.608E+05  +1.204E+05  +1.177E+05  -4.347E+03  -6.891E+04  +8.328E+05
 +6.93E+00  +8.93E+00  +2.315E+04  +2.653E+03  +3.359E+03  -1.309E+03  -1.771E+04  +8.683E+05  +9.948E+04  +1.260E+05  -4.909E+03  -6.641E+04  +8.515E+05

element # = 88     type =16-n plate
 XX         YY         MXX         MYY         MXY         QYZ         QZX         SIGXX       SIGYY       TAUXY       TAUXZ(Z=0)  TAUYZ(Z=0)   SIGV
 +7.07E+00  +8.07E+00  +1.998E+04  +3.951E+03  +3.174E+03  -1.037E+03  -1.874E+04  +7.491E+05  +1.482E+05  +1.190E+05  -3.888E+03  -7.029E+04  +7.174E+05
 +7.07E+00  +8.33E+00  +2.012E+04  +3.484E+03  +3.135E+03  -1.096E+03  -1.875E+04  +7.547E+05  +1.306E+05  +1.176E+05  -4.109E+03  -7.031E+04  +7.276E+05
 +7.07E+00  +8.67E+00  +2.031E+04  +2.852E+03  +3.253E+03  -1.115E+03  -1.862E+04  +7.617E+05  +1.069E+05  +1.220E+05  -4.182E+03  -6.984E+04  +7.448E+05
 +7.07E+00  +8.93E+00  +2.047E+04  +2.354E+03  +3.485E+03  -1.212E+03  -1.790E+04  +7.677E+05  +8.827E+04  +1.307E+05  -4.545E+03  -6.713E+04  +7.620E+05
 +7.33E+00  +8.07E+00  +1.455E+04  +2.972E+03  +3.335E+03  -1.078E+03  -2.267E+04  +5.454E+05  +1.114E+05  +1.250E+05  -4.044E+03  -8.499E+04  +5.441E+05
 +7.33E+00  +8.33E+00  +1.462E+04  +2.582E+03  +3.288E+03  -1.037E+03  -2.268E+04  +5.482E+05  +9.683E+04  +1.233E+05  -3.887E+03  -8.504E+04  +5.499E+05
 +7.33E+00  +8.67E+00  +1.471E+04  +2.079E+03  +3.411E+03  -1.024E+03  -2.255E+04  +5.515E+05  +7.798E+04  +1.279E+05  -3.840E+03  -8.457E+04  +5.624E+05
 +7.33E+00  +8.93E+00  +1.478E+04  +1.700E+03  +3.654E+03  -1.009E+03  -2.178E+04  +5.544E+05  +6.376E+04  +1.370E+05  -3.784E+03  -8.166E+04  +5.765E+05
 +7.67E+00  +8.07E+00  +6.585E+03  +1.534E+03  +3.429E+03  -1.151E+03  -2.462E+04  +2.469E+05  +5.754E+04  +1.286E+05  -4.316E+03  -9.233E+04  +3.157E+05
 +7.67E+00  +8.33E+00  +6.558E+03  +1.251E+03  +3.372E+03  -9.548E+02  -2.465E+04  +2.459E+05  +4.691E+04  +1.264E+05  -3.580E+03  -9.242E+04  +3.148E+05
 +7.67E+00  +8.67E+00  +6.514E+03  +9.278E+02  +3.486E+03  -8.865E+02  -2.450E+04  +2.443E+05  +3.479E+04  +1.307E+05  -3.324E+03  -9.189E+04  +3.219E+05
 +7.67E+00  +8.93E+00  +6.479E+03  +7.165E+02  +3.733E+03  -6.957E+02  -2.367E+04  +2.430E+05  +2.687E+04  +1.400E+05  -2.609E+03  -8.874E+04  +3.347E+05
 +7.93E+00  +8.07E+00  -1.853E+02  +3.158E+02  +3.413E+03  -1.240E+03  -2.869E+04  -6.947E+03  +1.184E+04  +1.280E+05  -4.649E+03  -1.076E+05  +2.223E+05
 +7.93E+00  +8.33E+00  -2.925E+02  +1.039E+02  +3.344E+03  -8.922E+02  -2.874E+04  -1.097E+04  +3.897E+03  +1.254E+05  -3.346E+03  -1.078E+05  +2.176E+05
 +7.93E+00  +8.67E+00  -4.433E+02  -7.706E+01  +3.442E+03  -7.906E+02  -2.862E+04  -1.662E+04  -2.890E+03  +1.291E+05  -2.965E+03  -1.073E+05  +2.241E+05
 +7.93E+00  +8.93E+00  -5.628E+02  -1.419E+02  +3.684E+03  -4.093E+02  -2.776E+04  -2.111E+04  -5.320E+03  +1.381E+05  -1.535E+03  -1.041E+05  +2.400E+05

element # = 89     type =16-n plate
 XX         YY         MXX         MYY         MXY         QYZ         QZX         SIGXX       SIGYY       TAUXY       TAUXZ(Z=0)  TAUYZ(Z=0)   SIGV
 +8.07E+00  +8.07E+00  -4.152E+03  -3.996E+02  +3.367E+03  -1.298E+03  -2.898E+04  -1.557E+05  -1.498E+04  +1.263E+05  -4.867E+03  -1.087E+05  +2.645E+05
 +8.07E+00  +8.33E+00  -4.304E+03  -5.709E+02  +3.295E+03  -8.804E+02  -2.905E+04  -1.614E+05  -2.141E+04  +1.236E+05  -3.302E+03  -1.089E+05  +2.624E+05
 +8.07E+00  +8.67E+00  -4.503E+03  -6.799E+02  +3.385E+03  -7.377E+02  -2.896E+04  -1.689E+05  -2.550E+04  +1.269E+05  -2.766E+03  -1.086E+05  +2.705E+05
 +8.07E+00  +8.93E+00  -4.695E+03  -6.824E+02  +3.598E+03  -2.621E+02  -2.809E+04  -1.761E+05  -2.559E+04  +1.349E+05  -9.830E+02  -1.053E+05  +2.860E+05
 +8.33E+00  +8.07E+00  -1.229E+04  -1.860E+03  +3.230E+03  -1.441E+03  -3.334E+04  -4.610E+05  -6.975E+04  +1.211E+05  -5.403E+03  -1.250E+05  +4.788E+05
 +8.33E+00  +8.33E+00  -1.252E+04  -1.969E+03  +3.149E+03  -8.622E+02  -3.346E+04  -4.696E+05  -7.386E+04  +1.181E+05  -3.233E+03  -1.255E+05  +4.828E+05
 +8.33E+00  +8.67E+00  -1.283E+04  -1.953E+03  +3.201E+03  -6.439E+02  -3.336E+04  -4.811E+05  -7.324E+04  +1.201E+05  -2.415E+03  -1.251E+05  +4.948E+05
 +8.33E+00  +8.93E+00  -1.309E+04  -1.821E+03  +3.387E+03  +5.873E+01  -3.255E+04  -4.908E+05  -6.830E+04  +1.270E+05  +2.202E+02  -1.220E+05  +5.103E+05
 +8.67E+00  +8.07E+00  -2.390E+04  -3.914E+03  +2.927E+03  -1.744E+03  -3.545E+04  -8.961E+05  -1.468E+05  +1.098E+05  -6.539E+03  -1.329E+05  +8.539E+05
 +8.67E+00  +8.33E+00  -2.424E+04  -3.991E+03  +2.842E+03  -9.361E+02  -3.568E+04  -9.089E+05  -1.497E+05  +1.066E+05  -3.511E+03  -1.338E+05  +8.640E+05
 +8.67E+00  +8.67E+00  -2.466E+04  -3.842E+03  +2.846E+03  -6.309E+02  -3.580E+04  -9.248E+05  -1.441E+05  +1.067E+05  -2.366E+03  -1.343E+05  +8.814E+05
 +8.67E+00  +8.93E+00  -2.504E+04  -3.547E+03  +2.952E+03  +4.859E+02  -3.508E+04  -9.389E+05  -1.330E+05  +1.107E+05  +1.822E+03  -1.315E+05  +9.006E+05
 +8.93E+00  +8.07E+00  -3.354E+04  -5.608E+03  +2.585E+03  -2.087E+03  -3.995E+04  -1.258E+06  -2.103E+05  +9.692E+04  -7.825E+03  -1.498E+05  +1.179E+06
 +8.93E+00  +8.33E+00  -3.397E+04  -5.669E+03  +2.525E+03  -1.246E+03  -4.032E+04  -1.274E+06  -2.126E+05  +9.468E+04  -4.671E+03  -1.512E+05  +1.193E+06
 +8.93E+00  +8.67E+00  -3.448E+04  -5.488E+03  +2.486E+03  -7.553E+02  -4.061E+04  -1.293E+06  -2.058E+05  +9.321E+04  -2.832E+03  -1.523E+05  +1.214E+06
 +8.93E+00  +8.93E+00  -3.499E+04  -5.178E+03  +2.467E+03  +6.311E+02  -4.017E+04  -1.312E+06  -1.942E+05  +9.253E+04  +2.367E+03  -1.506E+05  +1.237E+06

element # = 90     type =16-n plate
 XX         YY         MXX         MYY         MXY         QYZ         QZX         SIGXX       SIGYY       TAUXY       TAUXZ(Z=0)  TAUYZ(Z=0)   SIGV
 +9.07E+00  +8.07E+00  -3.907E+04  -6.564E+03  +2.420E+03  -2.096E+03  -4.031E+04  -1.465E+06  -2.461E+05  +9.076E+04  -7.859E+03  -1.511E+05  +1.368E+06
 +9.07E+00  +8.33E+00  -3.955E+04  -6.631E+03  +2.367E+03  -1.202E+03  -4.071E+04  -1.483E+06  -2.487E+05  +8.877E+04  -4.508E+03  -1.526E+05  +1.384E+06
 +9.07E+00  +8.67E+00  -4.015E+04  -6.459E+03  +2.317E+03  -6.426E+02  -4.099E+04  -1.506E+06  -2.422E+05  +8.688E+04  -2.410E+03  -1.537E+05  +1.408E+06
 +9.07E+00  +8.93E+00  -4.047E+04  -6.109E+03  +2.320E+03  +8.274E+02  -4.090E+04  -1.518E+06  -2.291E+05  +8.699E+04  +3.103E+03  -1.534E+05  +1.425E+06
 +9.33E+00  +8.07E+00  -5.028E+04  -8.445E+03  +1.884E+03  -2.710E+03  -4.478E+04  -1.885E+06  -3.167E+05  +7.067E+04  -1.016E+04  -1.679E+05  +1.753E+06
 +9.33E+00  +8.33E+00  -5.090E+04  -8.572E+03  +1.862E+03  -1.869E+03  -4.552E+04  -1.909E+06  -3.214E+05  +6.981E+04  -7.009E+03  -1.707E+05  +1.774E+06
 +9.33E+00  +8.67E+00  -5.162E+04  -8.432E+03  +1.819E+03  -1.261E+03  -4.662E+04  -1.936E+06  -3.162E+05  +6.820E+04  -4.730E+03  -1.748E+05  +1.802E+06
 +9.33E+00  +8.93E+00  -5.221E+04  -8.113E+03  +1.772E+03  +5.220E+02  -4.680E+04  -1.958E+06  -3.042E+05  +6.645E+04  +1.958E+03  -1.755E+05  +1.829E+06
 +9.67E+00  +8.07E+00  -6.585E+04  -1.102E+04  +1.131E+03  -3.349E+03  -4.683E+04  -2.469E+06  -4.132E+05  +4.240E+04  -1.256E+04  -1.756E+05  +2.292E+06
 +9.67E+00  +8.33E+00  -6.674E+04  -1.121E+04  +1.183E+03  -3.014E+03  -4.766E+04  -2.503E+06  -4.203E+05  +4.436E+04  -1.130E+04  -1.787E+05  +2.322E+06
 +9.67E+00  +8.67E+00  -6.782E+04  -1.124E+04  +1.148E+03  -2.431E+03  -4.913E+04  -2.543E+06  -4.214E+05  +4.306E+04  -9.117E+03  -1.843E+05  +2.362E+06
 +9.67E+00  +8.93E+00  -6.866E+04  -1.110E+04  +1.001E+03  -6.629E+02  -5.094E+04  -2.575E+06  -4.164E+05  +3.755E+04  -2.486E+03  -1.910E+05  +2.395E+06
 +9.93E+00  +8.07E+00  -7.852E+04  -1.310E+04  +5.357E+02  -1.230E+03  -5.101E+04  -2.945E+06  -4.911E+05  +2.009E+04  -4.612E+03  -1.913E+05  +2.732E+06
 +9.93E+00  +8.33E+00  -7.965E+04  -1.330E+04  +5.890E+02  -1.205E+03  -5.205E+04  -2.987E+06  -4.988E+05  +2.209E+04  -4.520E+03  -1.952E+05  +2.772E+06
 +9.93E+00  +8.67E+00  -8.117E+04  -1.352E+04  +6.009E+02  -1.012E+03  -5.439E+04  -3.044E+06  -5.071E+05  +2.253E+04  -3.797E+03  -2.040E+05  +2.825E+06
 +9.93E+00  +8.93E+00  -8.212E+04  -1.361E+04  +4.974E+02  -4.286E+02  -5.766E+04  -3.079E+06  -5.105E+05  +1.865E+04  -1.607E+03  -2.162E+05  +2.859E+06

element # = 91     type =16-n plate
 XX         YY         MXX         MYY         MXY         QYZ         QZX         SIGXX       SIGYY       TAUXY       TAUXZ(Z=0)  TAUYZ(Z=0)   SIGV
 +6.94E-02  +9.07E+00  -8.298E+04  -1.372E+04  -5.910E+02  -1.890E+03  +5.630E+04  -3.112E+06  -5.145E+05  -2.216E+04  -7.086E+03  +2.111E+05  +2.889E+06
 +6.94E-02  +9.33E+00  -8.354E+04  -1.356E+04  +2.900E+01  +2.876E+03  +6.260E+04  -3.133E+06  -5.084E+05  +1.088E+03  +1.079E+04  +2.347E+05  +2.912E+06
 +6.94E-02  +9.67E+00  -8.212E+04  -1.172E+04  +2.065E+03  +3.112E+03  +6.339E+04  -3.080E+06  -4.394E+05  +7.745E+04  +1.167E+04  +2.377E+05  +2.888E+06
 +6.94E-02  +9.93E+00  -8.189E+04  -9.474E+03  +5.970E+03  +6.192E+03  +1.408E+04  -3.071E+06  -3.553E+05  +2.239E+05  +2.322E+04  +5.281E+04  +2.935E+06
 +3.30E-01  +9.07E+00  -6.893E+04  -1.115E+04  -1.213E+03  -3.534E+03  +5.086E+04  -2.585E+06  -4.182E+05  -4.547E+04  -1.325E+04  +1.907E+05  +2.405E+06
 +3.30E-01  +9.33E+00  -6.939E+04  -9.926E+03  -2.904E+02  +7.382E+03  +5.294E+04  -2.602E+06  -3.722E+05  -1.089E+04  +2.768E+04  +1.985E+05  +2.438E+06
 +3.30E-01  +9.67E+00  -6.986E+04  -5.764E+03  +6.956E+02  +8.172E+03  +5.270E+04  -2.620E+06  -2.161E+05  +2.609E+04  +3.064E+04  +1.976E+05  +2.519E+06
 +3.30E-01  +9.93E+00  -6.901E+04  -4.240E+02  +1.009E+03  +1.344E+04  +3.634E+04  -2.588E+06  -1.590E+04  +3.782E+04  +5.039E+04  +1.363E+05  +2.581E+06
 +6.70E-01  +9.07E+00  -5.231E+04  -8.180E+03  -1.446E+03  +3.572E+02  +4.898E+04  -1.962E+06  -3.068E+05  -5.423E+04  +1.340E+03  +1.837E+05  +1.830E+06
 +6.70E-01  +9.33E+00  -5.277E+04  -6.120E+03  -1.446E+03  +4.880E+03  +4.802E+04  -1.979E+06  -2.295E+05  -5.421E+04  +1.830E+04  +1.801E+05  +1.877E+06
 +6.70E-01  +9.67E+00  -5.431E+04  -3.256E+03  -1.225E+03  +5.603E+03  +4.284E+04  -2.037E+06  -1.221E+05  -4.593E+04  +2.101E+04  +1.606E+05  +1.980E+06
 +6.70E-01  +9.93E+00  -5.425E+04  -6.005E+02  -1.483E+03  +4.140E+03  +5.453E+04  -2.034E+06  -2.252E+04  -5.560E+04  +1.552E+04  +2.045E+05  +2.026E+06
 +9.31E-01  +9.07E+00  -4.082E+04  -5.853E+03  -1.876E+03  +1.172E+03  +4.188E+04  -1.531E+06  -2.195E+05  -7.034E+04  +4.397E+03  +1.570E+05  +1.439E+06
 +9.31E-01  +9.33E+00  -4.151E+04  -4.317E+03  -2.417E+03  +2.994E+03  +4.022E+04  -1.557E+06  -1.619E+05  -9.065E+04  +1.123E+04  +1.508E+05  +1.491E+06
 +9.31E-01  +9.67E+00  -4.221E+04  -2.239E+03  -2.407E+03  +3.056E+03  +4.098E+04  -1.583E+06  -8.395E+04  -9.024E+04  +1.146E+04  +1.537E+05  +1.550E+06
 +9.31E-01  +9.93E+00  -4.295E+04  -6.497E+02  -1.256E+03  +1.566E+03  +5.992E+04  -1.611E+06  -2.436E+04  -4.709E+04  +5.874E+03  +2.247E+05  +1.601E+06

element # = 92     type =16-n plate
 XX         YY         MXX         MYY         MXY         QYZ         QZX         SIGXX       SIGYY       TAUXY       TAUXZ(Z=0)  TAUYZ(Z=0)   SIGV
 +1.07E+00  +9.07E+00  -3.513E+04  -4.795E+03  -2.217E+03  +4.470E+02  +4.174E+04  -1.317E+06  -1.798E+05  -8.312E+04  +1.676E+03  +1.565E+05  +1.246E+06
 +1.07E+00  +9.33E+00  -3.566E+04  -3.594E+03  -2.846E+03  +2.802E+03  +4.026E+04  -1.337E+06  -1.348E+05  -1.067E+05  +1.051E+04  +1.510E+05  +1.289E+06
 +1.07E+00  +9.67E+00  -3.672E+04  -1.680E+03  -2.783E+03  +2.829E+03  +3.969E+04  -1.377E+06  -6.300E+04  -1.044E+05  +1.061E+04  +1.489E+05  +1.359E+06
 +1.07E+00  +9.93E+00  -3.669E+04  +2.395E+02  -2.362E+03  +2.922E+03  +6.139E+04  -1.376E+06  +8.982E+03  -8.858E+04  +1.096E+04  +2.302E+05  +1.389E+06
 +1.33E+00  +9.07E+00  -2.522E+04  -3.368E+03  -2.607E+03  +5.612E+02  +3.697E+04  -9.458E+05  -1.263E+05  -9.776E+04  +2.105E+03  +1.386E+05  +9.054E+05
 +1.33E+00  +9.33E+00  -2.566E+04  -2.351E+03  -3.541E+03  +1.589E+03  +3.544E+04  -9.621E+05  -8.817E+04  -1.328E+05  +5.959E+03  +1.329E+05  +9.494E+05
 +1.33E+00  +9.67E+00  -2.640E+04  -1.106E+03  -3.510E+03  +1.947E+03  +3.514E+04  -9.899E+05  -4.149E+04  -1.316E+05  +7.302E+03  +1.318E+05  +9.962E+05
 +1.33E+00  +9.93E+00  -2.654E+04  -1.224E+02  -2.585E+03  +1.155E+03  +6.149E+04  -9.953E+05  -4.589E+03  -9.693E+04  +4.333E+03  +2.306E+05  +1.007E+06
 +1.67E+00  +9.07E+00  -1.323E+04  -1.665E+03  -3.064E+03  +1.250E+02  +3.453E+04  -4.961E+05  -6.245E+04  -1.149E+05  +4.689E+02  +1.295E+05  +5.086E+05
 +1.67E+00  +9.33E+00  -1.355E+04  -1.171E+03  -4.162E+03  +6.289E+02  +3.292E+04  -5.080E+05  -4.392E+04  -1.561E+05  +2.358E+03  +1.234E+05  +5.575E+05
 +1.67E+00  +9.67E+00  -1.396E+04  -5.322E+02  -4.106E+03  +7.881E+02  +3.332E+04  -5.235E+05  -1.996E+04  -1.540E+05  +2.955E+03  +1.250E+05  +5.789E+05
 +1.67E+00  +9.93E+00  -1.410E+04  -1.650E+01  -2.884E+03  +4.946E+02  +6.269E+04  -5.286E+05  -6.187E+02  -1.081E+05  +1.855E+03  +2.351E+05  +5.605E+05
 +1.93E+00  +9.07E+00  -4.782E+03  -6.183E+02  -3.299E+03  -1.969E+02  +3.019E+04  -1.793E+05  -2.319E+04  -1.237E+05  -7.383E+02  +1.132E+05  +2.728E+05
 +1.93E+00  +9.33E+00  -4.958E+03  -4.203E+02  -4.449E+03  +4.742E+01  +2.873E+04  -1.859E+05  -1.576E+04  -1.668E+05  +1.778E+02  +1.077E+05  +3.397E+05
 +1.93E+00  +9.67E+00  -5.211E+03  -1.755E+02  -4.308E+03  +2.006E+02  +2.920E+04  -1.954E+05  -6.582E+03  -1.615E+05  +7.522E+02  +1.095E+05  +3.394E+05
 +1.93E+00  +9.93E+00  -5.248E+03  +3.092E+01  -3.008E+03  +1.344E+02  +5.918E+04  -1.968E+05  +1.160E+03  -1.128E+05  +5.041E+02  +2.219E+05  +2.777E+05

element # = 93     type =16-n plate
 XX         YY         MXX         MYY         MXY         QYZ         QZX         SIGXX       SIGYY       TAUXY       TAUXZ(Z=0)  TAUYZ(Z=0)   SIGV
 +2.07E+00  +9.07E+00  -6.385E+02  -1.538E+02  -3.371E+03  -3.207E+02  +2.985E+04  -2.394E+04  -5.768E+03  -1.264E+05  -1.203E+03  +1.119E+05  +2.200E+05
 +2.07E+00  +9.33E+00  -7.673E+02  -7.296E+01  -4.527E+03  -2.356E+02  +2.841E+04  -2.877E+04  -2.736E+03  -1.698E+05  -8.837E+02  +1.065E+05  +2.953E+05
 +2.07E+00  +9.67E+00  -8.963E+02  -1.380E+01  -4.387E+03  -3.381E+01  +2.903E+04  -3.361E+04  -5.175E+02  -1.645E+05  -1.268E+02  +1.088E+05  +2.869E+05
 +2.07E+00  +9.93E+00  -9.623E+02  -3.495E+00  -2.987E+03  -1.209E+02  +5.919E+04  -3.609E+04  -1.311E+02  -1.120E+05  -4.535E+02  +2.220E+05  +1.973E+05
 +2.33E+00  +9.07E+00  +6.455E+03  +6.470E+02  -3.440E+03  -6.220E+02  +2.572E+04  +2.421E+05  +2.426E+04  -1.290E+05  -2.333E+03  +9.644E+04  +3.213E+05
 +2.33E+00  +9.33E+00  +6.429E+03  +4.586E+02  -4.571E+03  -6.372E+02  +2.432E+04  +2.411E+05  +1.720E+04  -1.714E+05  -2.389E+03  +9.121E+04  +3.774E+05
 +2.33E+00  +9.67E+00  +6.447E+03  +2.224E+02  -4.386E+03  -5.262E+02  +2.498E+04  +2.417E+05  +8.339E+03  -1.645E+05  -1.973E+03  +9.368E+04  +3.710E+05
 +2.33E+00  +9.93E+00  +6.425E+03  +3.628E+01  -2.959E+03  -3.345E+02  +5.459E+04  +2.409E+05  +1.361E+03  -1.110E+05  -1.254E+03  +2.047E+05  +3.077E+05
 +2.67E+00  +9.07E+00  +1.481E+04  +1.525E+03  -3.379E+03  -9.306E+02  +2.374E+04  +5.555E+05  +5.718E+04  -1.267E+05  -3.490E+03  +8.904E+04  +5.730E+05
 +2.67E+00  +9.33E+00  +1.491E+04  +1.068E+03  -4.443E+03  -1.088E+03  +2.252E+04  +5.593E+05  +4.004E+04  -1.666E+05  -4.079E+03  +8.443E+04  +6.126E+05
 +2.67E+00  +9.67E+00  +1.511E+04  +4.991E+02  -4.221E+03  -1.006E+03  +2.325E+04  +5.666E+05  +1.872E+04  -1.583E+05  -3.774E+03  +8.718E+04  +6.212E+05
 +2.67E+00  +9.93E+00  +1.513E+04  +5.463E+01  -2.817E+03  -6.232E+02  +5.130E+04  +5.672E+05  +2.049E+03  -1.056E+05  -2.337E+03  +1.924E+05  +5.950E+05
 +2.93E+00  +9.07E+00  +2.054E+04  +2.111E+03  -3.227E+03  -1.125E+03  +1.973E+04  +7.703E+05  +7.917E+04  -1.210E+05  -4.219E+03  +7.400E+04  +7.633E+05
 +2.93E+00  +9.33E+00  +2.073E+04  +1.477E+03  -4.208E+03  -1.365E+03  +1.858E+04  +7.772E+05  +5.540E+04  -1.578E+05  -5.121E+03  +6.968E+04  +7.992E+05
 +2.93E+00  +9.67E+00  +2.104E+04  +6.917E+02  -3.976E+03  -1.317E+03  +1.925E+04  +7.891E+05  +2.594E+04  -1.491E+05  -4.939E+03  +7.218E+04  +8.183E+05
 +2.93E+00  +9.93E+00  +2.108E+04  +7.671E+01  -2.633E+03  -8.357E+02  +4.537E+04  +7.905E+05  +2.877E+03  -9.874E+04  -3.134E+03  +1.701E+05  +8.074E+05

element # = 94     type =16-n plate
 XX         YY         MXX         MYY         MXY         QYZ         QZX         SIGXX       SIGYY       TAUXY       TAUXZ(Z=0)  TAUYZ(Z=0)   SIGV
 +3.07E+00  +9.07E+00  +2.324E+04  +2.381E+03  -3.115E+03  -1.223E+03  +1.946E+04  +8.716E+05  +8.928E+04  -1.168E+05  -4.588E+03  +7.297E+04  +8.549E+05
 +3.07E+00  +9.33E+00  +2.347E+04  +1.660E+03  -4.046E+03  -1.493E+03  +1.840E+04  +8.801E+05  +6.225E+04  -1.517E+05  -5.600E+03  +6.899E+04  +8.904E+05
 +3.07E+00  +9.67E+00  +2.384E+04  +7.734E+02  -3.810E+03  -1.468E+03  +1.911E+04  +8.940E+05  +2.900E+04  -1.429E+05  -5.506E+03  +7.166E+04  +9.140E+05
 +3.07E+00  +9.93E+00  +2.389E+04  +8.645E+01  -2.508E+03  -9.172E+02  +4.400E+04  +8.958E+05  +3.242E+03  -9.405E+04  -3.440E+03  +1.650E+05  +9.089E+05
 +3.33E+00  +9.07E+00  +2.767E+04  +2.802E+03  -2.843E+03  -1.391E+03  +1.555E+04  +1.038E+06  +1.051E+05  -1.066E+05  -5.215E+03  +5.830E+04  +1.006E+06
 +3.33E+00  +9.33E+00  +2.796E+04  +1.941E+03  -3.671E+03  -1.709E+03  +1.458E+04  +1.049E+06  +7.279E+04  -1.377E+05  -6.408E+03  +5.468E+04  +1.042E+06
 +3.33E+00  +9.67E+00  +2.842E+04  +8.916E+02  -3.441E+03  -1.706E+03  +1.520E+04  +1.066E+06  +3.344E+04  -1.291E+05  -6.396E+03  +5.700E+04  +1.073E+06
 +3.33E+00  +9.93E+00  +2.849E+04  +8.721E+01  -2.255E+03  -1.024E+03  +3.751E+04  +1.068E+06  +3.270E+03  -8.457E+04  -3.840E+03  +1.406E+05  +1.077E+06
 +3.67E+00  +9.07E+00  +3.260E+04  +3.273E+03  -2.396E+03  -1.561E+03  +1.369E+04  +1.222E+06  +1.227E+05  -8.985E+04  -5.852E+03  +5.134E+04  +1.176E+06
 +3.67E+00  +9.33E+00  +3.296E+04  +2.262E+03  -3.075E+03  -1.931E+03  +1.293E+04  +1.236E+06  +8.484E+04  -1.153E+05  -7.243E+03  +4.849E+04  +1.212E+06
 +3.67E+00  +9.67E+00  +3.352E+04  +1.035E+03  -2.870E+03  -1.960E+03  +1.348E+04  +1.257E+06  +3.882E+04  -1.076E+05  -7.351E+03  +5.055E+04  +1.252E+06
 +3.67E+00  +9.93E+00  +3.361E+04  +9.942E+01  -1.873E+03  -1.169E+03  +3.198E+04  +1.260E+06  +3.728E+03  -7.025E+04  -4.382E+03  +1.199E+05  +1.264E+06
 +3.93E+00  +9.07E+00  +3.572E+04  +3.576E+03  -1.989E+03  -1.653E+03  +9.827E+03  +1.340E+06  +1.341E+05  -7.460E+04  -6.197E+03  +3.685E+04  +1.284E+06
 +3.93E+00  +9.33E+00  +3.614E+04  +2.476E+03  -2.544E+03  -2.065E+03  +9.182E+03  +1.355E+06  +9.286E+04  -9.539E+04  -7.742E+03  +3.443E+04  +1.322E+06
 +3.93E+00  +9.67E+00  +3.676E+04  +1.138E+03  -2.368E+03  -2.114E+03  +9.602E+03  +1.378E+06  +4.268E+04  -8.880E+04  -7.928E+03  +3.601E+04  +1.366E+06
 +3.93E+00  +9.93E+00  +3.686E+04  +1.142E+02  -1.544E+03  -1.286E+03  +2.479E+04  +1.382E+06  +4.281E+03  -5.789E+04  -4.821E+03  +9.298E+04  +1.384E+06

element # = 95     type =16-n plate
 XX         YY         MXX         MYY         MXY         QYZ         QZX         SIGXX       SIGYY       TAUXY       TAUXZ(Z=0)  TAUYZ(Z=0)   SIGV
 +4.07E+00  +9.07E+00  +3.705E+04  +3.701E+03  -1.757E+03  -1.697E+03  +9.563E+03  +1.390E+06  +1.388E+05  -6.590E+04  -6.364E+03  +3.586E+04  +1.331E+06
 +4.07E+00  +9.33E+00  +3.749E+04  +2.561E+03  -2.243E+03  -2.123E+03  +9.022E+03  +1.406E+06  +9.604E+04  -8.410E+04  -7.962E+03  +3.383E+04  +1.368E+06
 +4.07E+00  +9.67E+00  +3.813E+04  +1.176E+03  -2.084E+03  -2.181E+03  +9.445E+03  +1.430E+06  +4.409E+04  -7.815E+04  -8.179E+03  +3.542E+04  +1.415E+06
 +4.07E+00  +9.93E+00  +3.824E+04  +1.170E+02  -1.349E+03  -1.323E+03  +2.276E+04  +1.434E+06  +4.387E+03  -5.057E+04  -4.962E+03  +8.535E+04  +1.434E+06
 +4.33E+00  +9.07E+00  +3.893E+04  +3.867E+03  -1.291E+03  -1.773E+03  +5.755E+03  +1.460E+06  +1.450E+05  -4.840E+04  -6.649E+03  +2.158E+04  +1.396E+06
 +4.33E+00  +9.33E+00  +3.939E+04  +2.667E+03  -1.643E+03  -2.209E+03  +5.339E+03  +1.477E+06  +1.000E+05  -6.161E+04  -8.285E+03  +2.002E+04  +1.434E+06
 +4.33E+00  +9.67E+00  +4.007E+04  +1.215E+03  -1.524E+03  -2.280E+03  +5.620E+03  +1.503E+06  +4.557E+04  -5.716E+04  -8.549E+03  +2.107E+04  +1.484E+06
 +4.33E+00  +9.93E+00  +4.019E+04  +1.138E+02  -9.862E+02  -1.349E+03  +1.532E+04  +1.507E+06  +4.267E+03  -3.698E+04  -5.057E+03  +5.746E+04  +1.506E+06
 +4.67E+00  +9.07E+00  +4.056E+04  +4.018E+03  -6.480E+02  -1.827E+03  +3.925E+03  +1.521E+06  +1.507E+05  -2.430E+04  -6.850E+03  +1.472E+04  +1.452E+06
 +4.67E+00  +9.33E+00  +4.104E+04  +2.769E+03  -8.238E+02  -2.279E+03  +3.740E+03  +1.539E+06  +1.038E+05  -3.089E+04  -8.547E+03  +1.402E+04  +1.491E+06
 +4.67E+00  +9.67E+00  +4.175E+04  +1.261E+03  -7.635E+02  -2.360E+03  +3.897E+03  +1.566E+06  +4.729E+04  -2.863E+04  -8.851E+03  +1.462E+04  +1.544E+06
 +4.67E+00  +9.93E+00  +4.188E+04  +1.175E+02  -4.955E+02  -1.394E+03  +8.778E+03  +1.570E+06  +4.408E+03  -1.858E+04  -5.229E+03  +3.292E+04  +1.569E+06
 +4.93E+00  +9.07E+00  +4.117E+04  +4.084E+03  -1.361E+02  -1.834E+03  +1.325E+02  +1.544E+06  +1.531E+05  -5.104E+03  -6.876E+03  +4.967E+02  +1.473E+06
 +4.93E+00  +9.33E+00  +4.167E+04  +2.821E+03  -1.732E+02  -2.301E+03  +7.802E+01  +1.563E+06  +1.058E+05  -6.495E+03  -8.627E+03  +2.926E+02  +1.512E+06
 +4.93E+00  +9.67E+00  +4.239E+04  +1.292E+03  -1.611E+02  -2.387E+03  +8.298E+01  +1.590E+06  +4.843E+04  -6.042E+03  -8.949E+03  +3.112E+02  +1.566E+06
 +4.93E+00  +9.93E+00  +4.252E+04  +1.264E+02  -1.084E+02  -1.439E+03  +1.123E+03  +1.594E+06  +4.740E+03  -4.066E+03  -5.395E+03  +4.212E+03  +1.592E+06

element # = 96     type =16-n plate
 XX         YY         MXX         MYY         MXY         QYZ         QZX         SIGXX       SIGYY       TAUXY       TAUXZ(Z=0)  TAUYZ(Z=0)   SIGV
 +5.07E+00  +9.07E+00  +4.117E+04  +4.084E+03  +1.361E+02  -1.834E+03  -1.325E+02  +1.544E+06  +1.531E+05  +5.104E+03  -6.876E+03  -4.967E+02  +1.473E+06
 +5.07E+00  +9.33E+00  +4.167E+04  +2.821E+03  +1.732E+02  -2.301E+03  -7.802E+01  +1.563E+06  +1.058E+05  +6.495E+03  -8.627E+03  -2.926E+02  +1.512E+06
 +5.07E+00  +9.67E+00  +4.239E+04  +1.292E+03  +1.611E+02  -2.387E+03  -8.298E+01  +1.590E+06  +4.843E+04  +6.042E+03  -8.949E+03  -3.112E+02  +1.566E+06
 +5.07E+00  +9.93E+00  +4.252E+04  +1.264E+02  +1.084E+02  -1.439E+03  -1.123E+03  +1.594E+06  +4.740E+03  +4.066E+03  -5.395E+03  -4.212E+03  +1.592E+06
 +5.33E+00  +9.07E+00  +4.056E+04  +4.018E+03  +6.480E+02  -1.827E+03  -3.925E+03  +1.521E+06  +1.507E+05  +2.430E+04  -6.850E+03  -1.472E+04  +1.452E+06
 +5.33E+00  +9.33E+00  +4.104E+04  +2.769E+03  +8.238E+02  -2.279E+03  -3.740E+03  +1.539E+06  +1.038E+05  +3.089E+04  -8.547E+03  -1.402E+04  +1.491E+06
 +5.33E+00  +9.67E+00  +4.175E+04  +1.261E+03  +7.635E+02  -2.360E+03  -3.897E+03  +1.566E+06  +4.729E+04  +2.863E+04  -8.851E+03  -1.462E+04  +1.544E+06
 +5.33E+00  +9.93E+00  +4.188E+04  +1.175E+02  +4.955E+02  -1.394E+03  -8.778E+03  +1.570E+06  +4.408E+03  +1.858E+04  -5.229E+03  -3.292E+04  +1.569E+06
 +5.67E+00  +9.07E+00  +3.893E+04  +3.867E+03  +1.291E+03  -1.773E+03  -5.755E+03  +1.460E+06  +1.450E+05  +4.840E+04  -6.649E+03  -2.158E+04  +1.396E+06
 +5.67E+00  +9.33E+00  +3.939E+04  +2.667E+03  +1.643E+03  -2.209E+03  -5.339E+03  +1.477E+06  +1.000E+05  +6.161E+04  -8.285E+03  -2.002E+04  +1.434E+06
 +5.67E+00  +9.67E+00  +4.007E+04  +1.215E+03  +1.524E+03  -2.280E+03  -5.620E+03  +1.503E+06  +4.557E+04  +5.716E+04  -8.549E+03  -2.107E+04  +1.484E+06
 +5.67E+00  +9.93E+00  +4.019E+04  +1.138E+02  +9.862E+02  -1.349E+03  -1.532E+04  +1.507E+06  +4.267E+03  +3.698E+04  -5.057E+03  -5.746E+04  +1.506E+06
 +5.93E+00  +9.07E+00  +3.705E+04  +3.701E+03  +1.757E+03  -1.697E+03  -9.563E+03  +1.390E+06  +1.388E+05  +6.590E+04  -6.364E+03  -3.586E+04  +1.331E+06
 +5.93E+00  +9.33E+00  +3.749E+04  +2.561E+03  +2.243E+03  -2.123E+03  -9.022E+03  +1.406E+06  +9.604E+04  +8.410E+04  -7.962E+03  -3.383E+04  +1.368E+06
 +5.93E+00  +9.67E+00  +3.813E+04  +1.176E+03  +2.084E+03  -2.181E+03  -9.445E+03  +1.430E+06  +4.409E+04  +7.815E+04  -8.179E+03  -3.542E+04  +1.415E+06
 +5.93E+00  +9.93E+00  +3.824E+04  +1.170E+02  +1.349E+03  -1.323E+03  -2.276E+04  +1.434E+06  +4.387E+03  +5.057E+04  -4.962E+03  -8.535E+04  +1.434E+06

element # = 97     type =16-n plate
 XX         YY         MXX         MYY         MXY         QYZ         QZX         SIGXX       SIGYY       TAUXY       TAUXZ(Z=0)  TAUYZ(Z=0)   SIGV
 +6.07E+00  +9.07E+00  +3.572E+04  +3.576E+03  +1.989E+03  -1.653E+03  -9.827E+03  +1.340E+06  +1.341E+05  +7.460E+04  -6.197E+03  -3.685E+04  +1.284E+06
 +6.07E+00  +9.33E+00  +3.614E+04  +2.476E+03  +2.544E+03  -2.065E+03  -9.182E+03  +1.355E+06  +9.286E+04  +9.539E+04  -7.742E+03  -3.443E+04  +1.322E+06
 +6.07E+00  +9.67E+00  +3.676E+04  +1.138E+03  +2.368E+03  -2.114E+03  -9.602E+03  +1.378E+06  +4.268E+04  +8.880E+04  -7.928E+03  -3.601E+04  +1.366E+06
 +6.07E+00  +9.93E+00  +3.686E+04  +1.142E+02  +1.544E+03  -1.286E+03  -2.479E+04  +1.382E+06  +4.281E+03  +5.789E+04  -4.821E+03  -9.298E+04  +1.384E+06
 +6.33E+00  +9.07E+00  +3.260E+04  +3.273E+03  +2.396E+03  -1.561E+03  -1.369E+04  +1.222E+06  +1.227E+05  +8.985E+04  -5.852E+03  -5.134E+04  +1.176E+06
 +6.33E+00  +9.33E+00  +3.296E+04  +2.262E+03  +3.075E+03  -1.931E+03  -1.293E+04  +1.236E+06  +8.484E+04  +1.153E+05  -7.243E+03  -4.849E+04  +1.212E+06
 +6.33E+00  +9.67E+00  +3.352E+04  +1.035E+03  +2.870E+03  -1.960E+03  -1.348E+04  +1.257E+06  +3.882E+04  +1.076E+05  -7.351E+03  -5.055E+04  +1.252E+06
 +6.33E+00  +9.93E+00  +3.361E+04  +9.942E+01  +1.873E+03  -1.169E+03  -3.198E+04  +1.260E+06  +3.728E+03  +7.025E+04  -4.382E+03  -1.199E+05  +1.264E+06
 +6.67E+00  +9.07E+00  +2.767E+04  +2.802E+03  +2.843E+03  -1.391E+03  -1.555E+04  +1.038E+06  +1.051E+05  +1.066E+05  -5.215E+03  -5.830E+04  +1.006E+06
 +6.67E+00  +9.33E+00  +2.796E+04  +1.941E+03  +3.671E+03  -1.709E+03  -1.458E+04  +1.049E+06  +7.279E+04  +1.377E+05  -6.408E+03  -5.468E+04  +1.042E+06
 +6.67E+00  +9.67E+00  +2.842E+04  +8.916E+02  +3.441E+03  -1.706E+03  -1.520E+04  +1.066E+06  +3.344E+04  +1.291E+05  -6.396E+03  -5.700E+04  +1.073E+06
 +6.67E+00  +9.93E+00  +2.849E+04  +8.721E+01  +2.255E+03  -1.024E+03  -3.751E+04  +1.068E+06  +3.270E+03  +8.457E+04  -3.840E+03  -1.406E+05  +1.077E+06
 +6.93E+00  +9.07E+00  +2.324E+04  +2.381E+03  +3.115E+03  -1.223E+03  -1.946E+04  +8.716E+05  +8.928E+04  +1.168E+05  -4.588E+03  -7.297E+04  +8.549E+05
 +6.93E+00  +9.33E+00  +2.347E+04  +1.660E+03  +4.046E+03  -1.493E+03  -1.840E+04  +8.801E+05  +6.225E+04  +1.517E+05  -5.600E+03  -6.899E+04  +8.904E+05
 +6.93E+00  +9.67E+00  +2.384E+04  +7.734E+02  +3.810E+03  -1.468E+03  -1.911E+04  +8.940E+05  +2.900E+04  +1.429E+05  -5.506E+03  -7.166E+04  +9.140E+05
 +6.93E+00  +9.93E+00  +2.389E+04  +8.645E+01  +2.508E+03  -9.172E+02  -4.400E+04  +8.958E+05  +3.242E+03  +9.405E+04  -3.440E+03  -1.650E+05  +9.089E+05

element # = 98     type =16-n plate
 XX         YY         MXX         MYY         MXY         QYZ         QZX         SIGXX       SIGYY       TAUXY       TAUXZ(Z=0)  TAUYZ(Z=0)   SIGV
 +7.07E+00  +9.07E+00  +2.054E+04  +2.111E+03  +3.227E+03  -1.125E+03  -1.973E+04  +7.703E+05  +7.917E+04  +1.210E+05  -4.219E+03  -7.400E+04  +7.633E+05
 +7.07E+00  +9.33E+00  +2.073E+04  +1.477E+03  +4.208E+03  -1.365E+03  -1.858E+04  +7.772E+05  +5.540E+04  +1.578E+05  -5.121E+03  -6.968E+04  +7.992E+05
 +7.07E+00  +9.67E+00  +2.104E+04  +6.917E+02  +3.976E+03  -1.317E+03  -1.925E+04  +7.891E+05  +2.594E+04  +1.491E+05  -4.939E+03  -7.218E+04  +8.183E+05
 +7.07E+00  +9.93E+00  +2.108E+04  +7.671E+01  +2.633E+03  -8.357E+02  -4.537E+04  +7.905E+05  +2.877E+03  +9.874E+04  -3.134E+03  -1.701E+05  +8.074E+05
 +7.33E+00  +9.07E+00  +1.481E+04  +1.525E+03  +3.379E+03  -9.306E+02  -2.374E+04  +5.555E+05  +5.718E+04  +1.267E+05  -3.490E+03  -8.904E+04  +5.730E+05
 +7.33E+00  +9.33E+00  +1.491E+04  +1.068E+03  +4.443E+03  -1.088E+03  -2.252E+04  +5.593E+05  +4.004E+04  +1.666E+05  -4.079E+03  -8.443E+04  +6.126E+05
 +7.33E+00  +9.67E+00  +1.511E+04  +4.991E+02  +4.221E+03  -1.006E+03  -2.325E+04  +5.666E+05  +1.872E+04  +1.583E+05  -3.774E+03  -8.718E+04  +6.212E+05
 +7.33E+00  +9.93E+00  +1.513E+04  +5.463E+01  +2.817E+03  -6.232E+02  -5.130E+04  +5.672E+05  +2.049E+03  +1.056E+05  -2.337E+03  -1.924E+05  +5.950E+05
 +7.67E+00  +9.07E+00  +6.455E+03  +6.470E+02  +3.440E+03  -6.220E+02  -2.572E+04  +2.421E+05  +2.426E+04  +1.290E+05  -2.333E+03  -9.644E+04  +3.213E+05
 +7.67E+00  +9.33E+00  +6.429E+03  +4.586E+02  +4.571E+03  -6.372E+02  -2.432E+04  +2.411E+05  +1.720E+04  +1.714E+05  -2.389E+03  -9.121E+04  +3.774E+05
 +7.67E+00  +9.67E+00  +6.447E+03  +2.224E+02  +4.386E+03  -5.262E+02  -2.498E+04  +2.417E+05  +8.339E+03  +1.645E+05  -1.973E+03  -9.368E+04  +3.710E+05
 +7.67E+00  +9.93E+00  +6.425E+03  +3.628E+01  +2.959E+03  -3.345E+02  -5.459E+04  +2.409E+05  +1.361E+03  +1.110E+05  -1.254E+03  -2.047E+05  +3.077E+05
 +7.93E+00  +9.07E+00  -6.385E+02  -1.538E+02  +3.371E+03  -3.207E+02  -2.985E+04  -2.394E+04  -5.768E+03  +1.264E+05  -1.203E+03  -1.119E+05  +2.200E+05
 +7.93E+00  +9.33E+00  -7.673E+02  -7.296E+01  +4.527E+03  -2.356E+02  -2.841E+04  -2.877E+04  -2.736E+03  +1.698E+05  -8.837E+02  -1.065E+05  +2.953E+05
 +7.93E+00  +9.67E+00  -8.963E+02  -1.380E+01  +4.387E+03  -3.381E+01  -2.903E+04  -3.361E+04  -5.175E+02  +1.645E+05  -1.268E+02  -1.088E+05  +2.869E+05
 +7.93E+00  +9.93E+00  -9.623E+02  -3.495E+00  +2.987E+03  -1.209E+02  -5.919E+04  -3.609E+04  -1.311E+02  +1.120E+05  -4.535E+02  -2.220E+05  +1.973E+05

element # = 99     type =16-n plate
 XX         YY         MXX         MYY         MXY         QYZ         QZX         SIGXX       SIGYY       TAUXY       TAUXZ(Z=0)  TAUYZ(Z=0)   SIGV
 +8.07E+00  +9.07E+00  -4.782E+03  -6.183E+02  +3.299E+03  -1.969E+02  -3.019E+04  -1.793E+05  -2.319E+04  +1.237E+05  -7.383E+02  -1.132E+05  +2.728E+05
 +8.07E+00  +9.33E+00  -4.958E+03  -4.203E+02  +4.449E+03  +4.742E+01  -2.873E+04  -1.859E+05  -1.576E+04  +1.668E+05  +1.778E+02  -1.077E+05  +3.397E+05
 +8.07E+00  +9.67E+00  -5.211E+03  -1.755E+02  +4.308E+03  +2.006E+02  -2.920E+04  -1.954E+05  -6.582E+03  +1.615E+05  +7.522E+02  -1.095E+05  +3.394E+05
 +8.07E+00  +9.93E+00  -5.248E+03  +3.092E+01  +3.008E+03  +1.344E+02  -5.918E+04  -1.968E+05  +1.160E+03  +1.128E+05  +5.041E+02  -2.219E+05  +2.777E+05
 +8.33E+00  +9.07E+00  -1.323E+04  -1.665E+03  +3.064E+03  +1.250E+02  -3.453E+04  -4.961E+05  -6.245E+04  +1.149E+05  +4.689E+02  -1.295E+05  +5.086E+05
 +8.33E+00  +9.33E+00  -1.355E+04  -1.171E+03  +4.162E+03  +6.289E+02  -3.292E+04  -5.080E+05  -4.392E+04  +1.561E+05  +2.358E+03  -1.234E+05  +5.575E+05
 +8.33E+00  +9.67E+00  -1.396E+04  -5.322E+02  +4.106E+03  +7.881E+02  -3.332E+04  -5.235E+05  -1.996E+04  +1.540E+05  +2.955E+03  -1.250E+05  +5.789E+05
 +8.33E+00  +9.93E+00  -1.410E+04  -1.650E+01  +2.884E+03  +4.946E+02  -6.269E+04  -5.286E+05  -6.187E+02  +1.081E+05  +1.855E+03  -2.351E+05  +5.605E+05
 +8.67E+00  +9.07E+00  -2.522E+04  -3.368E+03  +2.607E+03  +5.612E+02  -3.697E+04  -9.458E+05  -1.263E+05  +9.776E+04  +2.105E+03  -1.386E+05  +9.054E+05
 +8.67E+00  +9.33E+00  -2.566E+04  -2.351E+03  +3.541E+03  +1.589E+03  -3.544E+04  -9.621E+05  -8.817E+04  +1.328E+05  +5.959E+03  -1.329E+05  +9.494E+05
 +8.67E+00  +9.67E+00  -2.640E+04  -1.106E+03  +3.510E+03  +1.947E+03  -3.514E+04  -9.899E+05  -4.149E+04  +1.316E+05  +7.302E+03  -1.318E+05  +9.962E+05
 +8.67E+00  +9.93E+00  -2.654E+04  -1.224E+02  +2.585E+03  +1.155E+03  -6.149E+04  -9.953E+05  -4.589E+03  +9.693E+04  +4.333E+03  -2.306E+05  +1.007E+06
 +8.93E+00  +9.07E+00  -3.513E+04  -4.795E+03  +2.217E+03  +4.470E+02  -4.174E+04  -1.317E+06  -1.798E+05  +8.312E+04  +1.676E+03  -1.565E+05  +1.246E+06
 +8.93E+00  +9.33E+00  -3.566E+04  -3.594E+03  +2.846E+03  +2.802E+03  -4.026E+04  -1.337E+06  -1.348E+05  +1.067E+05  +1.051E+04  -1.510E+05  +1.289E+06
 +8.93E+00  +9.67E+00  -3.672E+04  -1.680E+03  +2.783E+03  +2.829E+03  -3.969E+04  -1.377E+06  -6.300E+04  +1.044E+05  +1.061E+04  -1.489E+05  +1.359E+06
 +8.93E+00  +9.93E+00  -3.669E+04  +2.395E+02  +2.362E+03  +2.922E+03  -6.139E+04  -1.376E+06  +8.982E+03  +8.858E+04  +1.096E+04  -2.302E+05  +1.389E+06

element # = 100     type =16-n plate
 XX         YY         MXX         MYY         MXY         QYZ         QZX         SIGXX       SIGYY       TAUXY       TAUXZ(Z=0)  TAUYZ(Z=0)   SIGV
 +9.07E+00  +9.07E+00  -4.082E+04  -5.853E+03  +1.876E+03  +1.172E+03  -4.188E+04  -1.531E+06  -2.195E+05  +7.034E+04  +4.397E+03  -1.570E+05  +1.439E+06
 +9.07E+00  +9.33E+00  -4.151E+04  -4.317E+03  +2.417E+03  +2.994E+03  -4.022E+04  -1.557E+06  -1.619E+05  +9.065E+04  +1.123E+04  -1.508E+05  +1.491E+06
 +9.07E+00  +9.67E+00  -4.221E+04  -2.239E+03  +2.407E+03  +3.056E+03  -4.098E+04  -1.583E+06  -8.395E+04  +9.024E+04  +1.146E+04  -1.537E+05  +1.550E+06
 +9.07E+00  +9.93E+00  -4.295E+04  -6.497E+02  +1.256E+03  +1.566E+03  -5.992E+04  -1.611E+06  -2.436E+04  +4.709E+04  +5.874E+03  -2.247E+05  +1.601E+06
 +9.33E+00  +9.07E+00  -5.231E+04  -8.180E+03  +1.446E+03  +3.572E+02  -4.898E+04  -1.962E+06  -3.068E+05  +5.423E+04  +1.340E+03  -1.837E+05  +1.830E+06
 +9.33E+00  +9.33E+00  -5.277E+04  -6.120E+03  +1.446E+03  +4.880E+03  -4.802E+04  -1.979E+06  -2.295E+05  +5.421E+04  +1.830E+04  -1.801E+05  +1.877E+06
 +9.33E+00  +9.67E+00  -5.431E+04  -3.256E+03  +1.225E+03  +5.603E+03  -4.284E+04  -2.037E+06  -1.221E+05  +4.593E+04  +2.101E+04  -1.606E+05  +1.980E+06
 +9.33E+00  +9.93E+00  -5.425E+04  -6.005E+02  +1.483E+03  +4.140E+03  -5.453E+04  -2.034E+06  -2.252E+04  +5.560E+04  +1.552E+04  -2.045E+05  +2.026E+06
 +9.67E+00  +9.07E+00  -6.893E+04  -1.115E+04  +1.213E+03  -3.534E+03  -5.086E+04  -2.585E+06  -4.182E+05  +4.547E+04  -1.325E+04  -1.907E+05  +2.405E+06
 +9.67E+00  +9.33E+00  -6.939E+04  -9.926E+03  +2.904E+02  +7.382E+03  -5.294E+04  -2.602E+06  -3.722E+05  +1.089E+04  +2.768E+04  -1.985E+05  +2.438E+06
 +9.67E+00  +9.67E+00  -6.986E+04  -5.764E+03  -6.956E+02  +8.172E+03  -5.270E+04  -2.620E+06  -2.161E+05  -2.609E+04  +3.064E+04  -1.976E+05  +2.519E+06
 +9.67E+00  +9.93E+00  -6.901E+04  -4.240E+02  -1.009E+03  +1.344E+04  -3.634E+04  -2.588E+06  -1.590E+04  -3.782E+04  +5.039E+04  -1.363E+05  +2.581E+06
 +9.93E+00  +9.07E+00  -8.298E+04  -1.372E+04  +5.910E+02  -1.890E+03  -5.630E+04  -3.112E+06  -5.145E+05  +2.216E+04  -7.086E+03  -2.111E+05  +2.889E+06
 +9.93E+00  +9.33E+00  -8.354E+04  -1.356E+04  -2.900E+01  +2.876E+03  -6.260E+04  -3.133E+06  -5.084E+05  -1.088E+03  +1.079E+04  -2.347E+05  +2.912E+06
 +9.93E+00  +9.67E+00  -8.212E+04  -1.172E+04  -2.065E+03  +3.112E+03  -6.339E+04  -3.080E+06  -4.394E+05  -7.745E+04  +1.167E+04  -2.377E+05  +2.888E+06
 +9.93E+00  +9.93E+00  -8.189E+04  -9.474E+03  -5.970E+03  +6.192E+03  -1.408E+04  -3.071E+06  -3.553E+05  -2.239E+05  +2.322E+04  -5.281E+04  +2.935E+06
